Au Pb 
 1.0000000000000000
     5.9637385930000004    0.0000000000000000    0.0000000000000000
     0.0000000000000000    7.3040582560000002    0.0000000000000000
     0.0000000000000000    0.0000000000000000   27.7471236840000017
  20   1
Cartesian
  1.4909300000000001  0.0000000000000000 10.0000000000000000
  0.0000000000000000  2.4346899999999998 10.8607899999999997
  1.4909300000000001  4.8693700000000000 11.7215799999999994
  0.0000000000000000  0.0000000000000000 12.5823699999999992
  1.4909300000000001  2.4346899999999998 13.4431700000000003
  0.0000000000000000  4.8693700000000000 14.3039600000000000
  1.4899199999999999  7.3002599999999997 15.1006800000000005
 -0.0284800000000000  2.3883500000000000 16.0560000000000009
  1.4917199999999999  4.6905900000000003 17.0115799999999986
 -0.0291300000000000  7.0818099999999999 17.6426300000000005
  4.4728000000000003  0.0000000000000000 10.0000000000000000
  2.9818699999999998  2.4346899999999998 10.8607899999999997
  4.4728000000000003  4.8693700000000000 11.7215799999999994
  2.9818699999999998  0.0000000000000000 12.5823699999999992
  4.4728000000000003  2.4346899999999998 13.4431700000000003
  2.9818699999999998  4.8693700000000000 14.3039600000000000
  4.4713399999999996 -0.0002400000000000 15.1035799999999991
  3.0099999999999998  2.3838200000000001 16.0589200000000005
  4.4716399999999998  4.7199099999999996 16.9275599999999997
  3.0085199999999999  7.0891500000000001 17.6465700000000005
  1.4733099999999999  2.1017800000000002 18.6376199999999983
