Au Pb 
 1.0000000000000000
     8.9456078889999997    0.0000000000000000    0.0000000000000000
     0.0000000000000000    7.3040582560000002    0.0000000000000000
     0.0000000000000000    0.0000000000000000   27.7471236840000017
  30   1
Cartesian
  1.4909300000000001  0.0000000000000000 10.0000000000000000
  0.0000000000000000  2.4346899999999998 10.8607899999999997
  1.4909300000000001  4.8693700000000000 11.7215799999999994
  0.0000000000000000  0.0000000000000000 12.5823699999999992
  1.4909300000000001  2.4346899999999998 13.4431700000000003
  0.0000000000000000  4.8693700000000000 14.3039600000000000
  1.4909300000000001  0.0582100000000000 15.1070899999999995
 -0.0340300000000000  2.4094799999999998 16.0966600000000000
  1.4909300000000001  4.7017800000000003 16.8591100000000012
 -0.0673700000000000 -0.0845300000000000 17.6229900000000015
  4.4728000000000003  0.0000000000000000 10.0000000000000000
  2.9818699999999998  2.4346899999999998 10.8607899999999997
  4.4728000000000003  4.8693700000000000 11.7215799999999994
  2.9818699999999998  0.0000000000000000 12.5823699999999992
  4.4728000000000003  2.4346899999999998 13.4431700000000003
  2.9818699999999998  4.8693700000000000 14.3039600000000000
  4.4720300000000002  0.0478200000000000 15.0881500000000006
  3.0158999999999998  2.4094799999999998 16.0966600000000000
  4.4837699999999998  4.7725299999999997 16.9503999999999984
  3.0492400000000002 -0.0845300000000000 17.6229900000000015
  7.4546700000000001  0.0000000000000000 10.0000000000000000
  5.9637399999999996  2.4346899999999998 10.8607899999999997
  7.4546700000000001  4.8693700000000000 11.7215799999999994
  5.9637399999999996  0.0000000000000000 12.5823699999999992
  7.4546700000000001  2.4346899999999998 13.4431700000000003
  5.9637399999999996  4.8693700000000000 14.3039600000000000
  7.4554499999999999  0.0478200000000000 15.0881500000000006
  5.9637399999999996  2.4422400000000000 16.1302799999999991
  7.4437100000000003  4.7725299999999997 16.9503999999999984
  5.9637399999999996 -0.1204400000000000 17.5562600000000018
  1.4909300000000001 -1.5759500000000000 19.4899099999999983
