Au Pb 
 1.0000000000000000
     5.9637385930000004    0.0000000000000000    0.0000000000000000
     0.0000000000000000    7.3040582560000002    0.0000000000000000
     0.0000000000000000    0.0000000000000000   27.7471236840000017
  20   1
Cartesian
  1.4909300000000001  0.0000000000000000 10.0000000000000000
  0.0000000000000000  2.4346899999999998 10.8607899999999997
  1.4909300000000001  4.8693700000000000 11.7215799999999994
  0.0000000000000000  0.0000000000000000 12.5823699999999992
  1.4909300000000001  2.4346899999999998 13.4431700000000003
  0.0000000000000000  4.8693700000000000 14.3039600000000000
  1.4974600000000000 -0.0132900000000000 15.1134100000000000
  0.0000000000000000  2.4127299999999998 15.9194099999999992
  1.4898700000000000  4.7355099999999997 17.0571500000000000
  0.0000000000000000 -0.0721700000000000 17.6765000000000008
  4.4728000000000003  0.0000000000000000 10.0000000000000000
  2.9818699999999998  2.4346899999999998 10.8607899999999997
  4.4728000000000003  4.8693700000000000 11.7215799999999994
  2.9818699999999998  0.0000000000000000 12.5823699999999992
  4.4728000000000003  2.4346899999999998 13.4431700000000003
  2.9818699999999998  4.8693700000000000 14.3039600000000000
  4.4662699999999997 -0.0132900000000000 15.1134100000000000
  2.9818699999999998  2.4053499999999999 16.1859499999999983
  4.4738699999999998  4.7355099999999997 17.0571500000000000
  2.9818699999999998 -0.1568300000000000 17.6135500000000000
  0.0000000000000000  2.7004199999999998 18.7507400000000004
