Au Pb 
 1.0000000000000000
     8.9456078889999997    0.0000000000000000    0.0000000000000000
     0.0000000000000000    7.3040582560000002    0.0000000000000000
     0.0000000000000000    0.0000000000000000   27.7471236840000017
  30   1
Cartesian
  1.4909300000000001  0.0000000000000000 10.0000000000000000
  0.0000000000000000  2.4346899999999998 10.8607899999999997
  1.4909300000000001  4.8693700000000000 11.7215799999999994
  0.0000000000000000  0.0000000000000000 12.5823699999999992
  1.4909300000000001  2.4346899999999998 13.4431700000000003
  0.0000000000000000  4.8693700000000000 14.3039600000000000
  1.4665200000000000  0.0677800000000000 15.1149299999999993
 -0.0352100000000000  2.4537100000000001 16.0689099999999989
  1.5285200000000001  4.6894799999999996 16.8264600000000009
 -0.1321000000000000  0.0442800000000000 17.6348899999999986
  4.4728000000000003  0.0000000000000000 10.0000000000000000
  2.9818699999999998  2.4346899999999998 10.8607899999999997
  4.4728000000000003  4.8693700000000000 11.7215799999999994
  2.9818699999999998  0.0000000000000000 12.5823699999999992
  4.4728000000000003  2.4346899999999998 13.4431700000000003
  2.9818699999999998  4.8693700000000000 14.3039600000000000
  4.4497900000000001  0.0382200000000000 15.1020699999999994
  3.0375000000000001  2.3740700000000001 16.1130500000000012
  4.4945399999999998  4.7722699999999998 16.9366899999999987
  2.9420899999999999 -0.1680900000000000 17.6591300000000011
  7.4546700000000001  0.0000000000000000 10.0000000000000000
  5.9637399999999996  2.4346899999999998 10.8607899999999997
  7.4546700000000001  4.8693700000000000 11.7215799999999994
  5.9637399999999996  0.0000000000000000 12.5823699999999992
  7.4546700000000001  2.4346899999999998 13.4431700000000003
  5.9637399999999996  4.8693700000000000 14.3039600000000000
  7.4371099999999997  0.0516800000000000 15.0920699999999997
  5.9784499999999996  2.4598399999999998 16.1436899999999994
  7.4758800000000001  4.8152900000000001 16.9975300000000011
  5.9012099999999998 -0.1036000000000000 17.5661200000000015
  1.1264799999999999  5.6122399999999999 19.4444699999999990
