Au Pb 
 1.0000000000000000
     2.9818692960000002    0.0000000000000000    0.0000000000000000
     0.0000000000000000    7.3040582560000002    0.0000000000000000
     0.0000000000000000    0.0000000000000000   27.7471236840000017
  10   1
Cartesian
  1.4909300000000001  0.0000000000000000 10.0000000000000000
  0.0000000000000000  2.4346899999999998 10.8607899999999997
  1.4909300000000001  4.8693700000000000 11.7215799999999994
  0.0000000000000000  0.0000000000000000 12.5823699999999992
  1.4909300000000001  2.4346899999999998 13.4431700000000003
  0.0000000000000000  4.8693700000000000 14.3039600000000000
  1.4909300000000001  0.0167500000000000 15.1320800000000002
  0.0000000000000000  2.3693700000000000 16.0878599999999992
  1.4909300000000001  4.7115400000000003 16.8719099999999997
  0.0000000000000000 -0.0389300000000000 17.6737900000000003
  0.0000000000000000  5.0272399999999999 19.5058499999999988
