Au Pb 
 1.0000000000000000
     5.9637385930000004    0.0000000000000000    0.0000000000000000
     0.0000000000000000    7.3040582560000002    0.0000000000000000
     0.0000000000000000    0.0000000000000000   27.7471236840000017
  20   1
Cartesian
  1.4909300000000001  0.0000000000000000 10.0000000000000000
  0.0000000000000000  2.4346899999999998 10.8607899999999997
  1.4909300000000001  4.8693700000000000 11.7215799999999994
  0.0000000000000000  0.0000000000000000 12.5823699999999992
  1.4909300000000001  2.4346899999999998 13.4431700000000003
  0.0000000000000000  4.8693700000000000 14.3039600000000000
  1.4909300000000001  0.0055800000000000 15.1038800000000002
 -0.0290900000000000  2.4112499999999999 16.0599899999999991
  1.4909300000000001  4.7273800000000001 17.0093999999999994
 -0.0280700000000000 -0.1812900000000000 17.6495199999999990
  4.4728000000000003  0.0000000000000000 10.0000000000000000
  2.9818699999999998  2.4346899999999998 10.8607899999999997
  4.4728000000000003  4.8693700000000000 11.7215799999999994
  2.9818699999999998  0.0000000000000000 12.5823699999999992
  4.4728000000000003  2.4346899999999998 13.4431700000000003
  2.9818699999999998  4.8693700000000000 14.3039600000000000
  4.4728000000000003  0.0102400000000000 15.1048600000000004
  3.0109599999999999  2.4112499999999999 16.0599899999999991
  4.4728000000000003  4.7539800000000003 16.9290599999999998
  3.0099399999999998 -0.1812900000000000 17.6495199999999990
  1.4909300000000001  2.1461700000000001 18.6376600000000003
