Au Pb 
 1.0000000000000000
     5.9637385930000004    0.0000000000000000    0.0000000000000000
     0.0000000000000000    7.3040582560000002    0.0000000000000000
     0.0000000000000000    0.0000000000000000   27.7471236840000017
  20   1
Cartesian
  1.4909300000000001  0.0000000000000000 10.0000000000000000
  0.0000000000000000  2.4346899999999998 10.8607899999999997
  1.4909300000000001  4.8693700000000000 11.7215799999999994
  0.0000000000000000  0.0000000000000000 12.5823699999999992
  1.4909300000000001  2.4346899999999998 13.4431700000000003
  0.0000000000000000  4.8693700000000000 14.3039600000000000
  1.4909300000000001  0.0571600000000000 15.1067699999999991
  5.9388100000000001  2.4171600000000000 16.0896399999999993
  1.4909300000000001  4.7168000000000001 16.8679899999999989
  5.9225800000000000  7.2431400000000004 17.6347200000000015
  4.4728000000000003  0.0000000000000000 10.0000000000000000
  2.9818699999999998  2.4346899999999998 10.8607899999999997
  4.4728000000000003  4.8693700000000000 11.7215799999999994
  2.9818699999999998  0.0000000000000000 12.5823699999999992
  4.4728000000000003  2.4346899999999998 13.4431700000000003
  2.9818699999999998  4.8693700000000000 14.3039600000000000
  4.4728000000000003  0.0332300000000000 15.0921299999999992
  3.0068000000000001  2.4171600000000000 16.0896399999999993
  4.4728000000000003  4.7776699999999996 16.9707399999999993
  3.0230299999999999  7.2431400000000004 17.6347200000000015
  1.4909300000000001  5.7240200000000003 19.5099100000000014
