Au Pb 
 1.0000000000000000
     2.9818692960000002    0.0000000000000000    0.0000000000000000
     0.0000000000000000    7.3040582560000002    0.0000000000000000
     0.0000000000000000    0.0000000000000000   27.7471236840000017
  10   1
Cartesian
  1.4909300000000001  0.0000000000000000 10.0000000000000000
  0.0000000000000000  2.4346899999999998 10.8607899999999997
  1.4909300000000001  4.8693700000000000 11.7215799999999994
  0.0000000000000000  0.0000000000000000 12.5823699999999992
  1.4909300000000001  2.4346899999999998 13.4431700000000003
  0.0000000000000000  4.8693700000000000 14.3039600000000000
  1.4909300000000001  0.0217000000000000 15.1321999999999992
  0.0000000000000000  2.3988499999999999 16.0582700000000003
  1.4909300000000001  4.7068199999999996 16.9224500000000013
  0.0000000000000000  0.0083500000000000 17.6539499999999983
  1.4909300000000001  5.6524500000000000 19.6752399999999987
