Au  O  H  O  C                          
   1.00000000000000     
     8.9234298281266149    0.0000000000000000    0.0000000000000000
     0.0000000000000000    8.9234298281266149    0.0000000000000000
     0.0000000000000000    0.0000000000000000   30.0000000000000000
   Au   O    H    O    C 
    36    20    40     1     1
Selective dynamics
Direct
  0.1666666700000000  0.1666666700000000  0.1000000000000000   F   F   F
  0.5000000000000000  0.1666666700000000  0.1000000000000000   F   F   F
  0.8333333300000000  0.1666666700000000  0.1000000000000000   F   F   F
  0.1666666700000000  0.5000000000000000  0.1000000000000000   F   F   F
  0.5000000000000000  0.5000000000000000  0.1000000000000000   F   F   F
  0.8333333300000000  0.5000000000000000  0.1000000000000000   F   F   F
  0.1666666700000000  0.8333333300000000  0.1000000000000000   F   F   F
  0.5000000000000000  0.8333333300000000  0.1000000000000000   F   F   F
  0.8333333300000000  0.8333333300000000  0.1000000000000000   F   F   F
  0.0000000000000000  0.0000000000000000  0.1701090900000000   F   F   F
  0.3333333300000000  0.0000000000000000  0.1701090900000000   F   F   F
  0.6666666700000000  0.0000000000000000  0.1701090900000000   F   F   F
  0.0000000000000000  0.3333333300000000  0.1701090900000000   F   F   F
  0.3333333300000000  0.3333333300000000  0.1701090900000000   F   F   F
  0.6666666700000000  0.3333333300000000  0.1701090900000000   F   F   F
  0.0000000000000000  0.6666666700000000  0.1701090900000000   F   F   F
  0.3333333300000000  0.6666666700000000  0.1701090900000000   F   F   F
  0.6666666700000000  0.6666666700000000  0.1701090900000000   F   F   F
  0.1819295656940551  0.1644976323958139  0.2467682470655456   T   T   T
  0.4986317598853481  0.1636539452981555  0.2375976829076356   T   T   T
  0.8307150782547563  0.1602852590023717  0.2387005836376010   T   T   T
  0.1645537598953606  0.4915231042508726  0.2433934599523305   T   T   T
  0.5087503613066643  0.4963298819675379  0.2416303489018753   T   T   T
  0.8420489629340353  0.4982254268444479  0.2427510050935305   T   T   T
  0.1675241934511146  0.8133640013272665  0.2415933927066010   T   T   T
  0.4897159205685193  0.8359179971328650  0.2426756786198531   T   T   T
  0.8311931942648730  0.8291493983804417  0.2326423342340201   T   T   T
  0.9727762467247085  0.9800749091951672  0.3044052502297721   T   T   T
  0.3108009137745782  0.9857433326770356  0.3160935922716377   T   T   T
  0.6517861179090332  0.9909035349227676  0.3115016081614385   T   T   T
  0.9660161463247251  0.3162628681847015  0.3135781498809213   T   T   T
  0.3369556450534131  0.3510274610292772  0.3112559966714927   T   T   T
  0.6440923062795473  0.3203385370453114  0.3095683240540090   T   T   T
  0.9874160053805957  0.6487082680356592  0.3106157142249225   T   T   T
  0.3222807072530776  0.6508383514548586  0.3144089918866504   T   T   T
  0.6582586399188771  0.6692376148593749  0.3067029386024842   T   T   T
  0.1192463811379078  0.1398592603600486  0.6363742361541089   T   T   T
  0.8105488587211191  0.5634212633030796  0.6668678610859519   T   T   T
  0.5500493102310673  0.9835303463904943  0.6615005744039358   T   T   T
  0.0111582840151785  0.5636225261437571  0.4377501480708697   T   T   T
  0.2980071551960250  0.2742953702919524  0.5584073327367663   T   T   T
  0.2640412670759473  0.6578680054810025  0.5541942290100494   T   T   T
  0.7837061960616901  0.5786848581686885  0.5249300505146187   T   T   T
  0.6441306029613819  0.9944243597079374  0.5717260602826061   T   T   T
  0.0816948958901703  0.0042840765124569  0.4767785514649159   T   T   T
  0.2251286076384735  0.3105655795763932  0.4634740693029136   T   T   T
  0.5288210472683610  0.4311478844092959  0.6048846415551810   T   T   T
  0.3953394374805165  0.6880289665523385  0.6413186276692991   T   T   T
  0.4650544210664054  0.8194094353181687  0.5032341949737971   T   T   T
  0.8231415734258187  0.1355891319231815  0.4265643877731686   T   T   T
  0.9793905985205125  0.7337486455245464  0.6072911411855473   T   T   T
  0.8334052361597638  0.2691600541277819  0.6520412306354895   T   T   T
  0.5358333174126741  0.1638941308551694  0.4935868760050616   T   T   T
  0.7251006540304139  0.7047190218035186  0.4170789593978376   T   T   T
  0.9364109311560725  0.0944033248038034  0.5650558037084479   T   T   T
  0.3851825426054409  0.6062148523488370  0.4388582048932774   T   T   T
  0.2052606785034600  0.1152096489728169  0.6543839440677134   T   T   T
  0.0555909239860037  0.2007521722073394  0.6539082666708830   T   T   T
  0.5859608549006853  0.9764748537040860  0.6300563621941925   T   T   T
  0.8336789721942797  0.5554169870660973  0.6978662315474523   T   T   T
  0.9106164513468863  0.5934653011461881  0.6560581957181301   T   T   T
  0.6396533030749615  0.9509422514500171  0.6764300118225007   T   T   T
  0.9121201599619981  0.6040581609378015  0.4297706126964506   T   T   T
  0.0890886967658179  0.6387984976200344  0.4321760690789185   T   T   T
  0.3820578748810324  0.3136876394612956  0.5724664956085225   T   T   T
  0.3529761879035831  0.7170726192855210  0.5472831871406659   T   T   T
  0.3157837766209711  0.5670590467611002  0.5629779695660052   T   T   T
  0.2584684507711731  0.2071670874543252  0.5818211283069814   T   T   T
  0.7373307185717815  0.4946892236734692  0.5406007010662659   T   T   T
  0.8769994002701091  0.5325729136865306  0.5137946136007584   T   T   T
  0.5882677582075859  0.0783923720399598  0.5582085753105087   T   T   T
  0.7456869475070055  0.0319109803065017  0.5650725895120151   T   T   T
  0.3060407271099652  0.7099892874896813  0.6252213287240307   T   T   T
  0.1875075646931148  0.9929746867012748  0.4727378597567262   T   T   T
  0.1272950906105470  0.2818198197078438  0.4528548855852720   T   T   T
  0.2349989415343429  0.2859092792855430  0.4944014484903062   T   T   T
  0.0589044900072426  0.9599975281054682  0.5043257145646139   T   T   T
  0.6357419234407887  0.4437137127939225  0.6072292159770500   T   T   T
  0.4790932830030215  0.4967162936328142  0.6260905767977449   T   T   T
  0.4313517994043607  0.7816213558889753  0.6538149279710633   T   T   T
  0.5560486066153830  0.7795613997701798  0.5166400863486030   T   T   T
  0.4795887313624265  0.9279069203977123  0.5023514826301597   T   T   T
  0.7662720034082310  0.1940957082828584  0.4053119218351490   T   T   T
  0.9214809095934088  0.1121582956014641  0.4166847292181645   T   T   T
  0.9095946439051918  0.7461463084195177  0.5834346896889192   T   T   T
  0.0730138417285289  0.7849103572249486  0.6041418651071035   T   T   T
  0.8020641472687071  0.3718025324570108  0.6584761718942912   T   T   T
  0.7585701207149410  0.2157332511922223  0.6349271924754744   T   T   T
  0.6241525874674664  0.1501621083066393  0.4759188249781333   T   T   T
  0.4775015813991512  0.2462448554833379  0.4824221546524575   T   T   T
  0.6999140970523656  0.7792718983768474  0.4386006256628768   T   T   T
  0.6287657104426424  0.6515105167578457  0.4169562431925762   T   T   T
  0.9961795332256054  0.1433635066596071  0.5880791707234361   T   T   T
  0.9260533005099643  0.1730846409903917  0.5430359588880729   T   T   T
  0.3092832529510403  0.5299450650957042  0.4367133472483148   T   T   T
  0.3690071843604535  0.6577593289315425  0.4671774009904134   T   T   T
  0.3623171893579328  0.9715916320687442  0.4166741500902771   T   T   T
  0.3034948434547619  0.9556990953177976  0.3828013399172316   T   T   T
 
  0.00000000E+00  0.00000000E+00  0.00000000E+00
  0.00000000E+00  0.00000000E+00  0.00000000E+00
  0.00000000E+00  0.00000000E+00  0.00000000E+00
  0.00000000E+00  0.00000000E+00  0.00000000E+00
  0.00000000E+00  0.00000000E+00  0.00000000E+00
  0.00000000E+00  0.00000000E+00  0.00000000E+00
  0.00000000E+00  0.00000000E+00  0.00000000E+00
  0.00000000E+00  0.00000000E+00  0.00000000E+00
  0.00000000E+00  0.00000000E+00  0.00000000E+00
  0.00000000E+00  0.00000000E+00  0.00000000E+00
  0.00000000E+00  0.00000000E+00  0.00000000E+00
  0.00000000E+00  0.00000000E+00  0.00000000E+00
  0.00000000E+00  0.00000000E+00  0.00000000E+00
  0.00000000E+00  0.00000000E+00  0.00000000E+00
  0.00000000E+00  0.00000000E+00  0.00000000E+00
  0.00000000E+00  0.00000000E+00  0.00000000E+00
  0.00000000E+00  0.00000000E+00  0.00000000E+00
  0.00000000E+00  0.00000000E+00  0.00000000E+00
  0.14336096E-02 -0.12298991E-03 -0.63279404E-03
 -0.11288855E-02 -0.36553444E-03 -0.18803105E-02
  0.98857901E-03  0.70935935E-03 -0.13282001E-02
  0.16357520E-02 -0.84294799E-03 -0.61664782E-03
 -0.12124629E-02 -0.20154147E-03  0.11794305E-02
 -0.21300942E-02  0.53533704E-03 -0.28862235E-03
  0.78048905E-04  0.45927926E-03  0.19998058E-02
  0.16521788E-03  0.39979292E-04 -0.10440602E-02
 -0.14563438E-02 -0.28659671E-03 -0.10468400E-03
 -0.16586660E-03 -0.69800212E-03  0.21640080E-02
  0.11440539E-02  0.12224791E-02  0.82250159E-03
  0.90624754E-03  0.42903650E-03  0.72812067E-03
  0.28051000E-03  0.53270874E-03  0.90341320E-03
  0.12113972E-02 -0.12057811E-03  0.25513703E-03
 -0.35817577E-03  0.58536642E-04  0.71508166E-03
 -0.42143035E-03  0.79360559E-03  0.60513759E-03
  0.16442878E-02 -0.93382111E-03 -0.33080975E-03
 -0.72779765E-03 -0.56643417E-04 -0.58470636E-03
  0.47529569E-02  0.32091203E-02 -0.69814888E-02
 -0.73357425E-02 -0.35128788E-02 -0.11005681E-02
  0.26010231E-02 -0.11070161E-02 -0.36347579E-02
 -0.47439394E-02  0.40059188E-02  0.27596846E-02
  0.48410145E-02  0.14582780E-02  0.40260753E-02
  0.13965469E-02  0.21292485E-03 -0.65148096E-02
 -0.14567690E-02  0.48431264E-02 -0.29499767E-02
  0.15181516E-02  0.18019942E-02 -0.76821675E-02
 -0.68942942E-02 -0.41321188E-02  0.27255054E-02
 -0.26575725E-02 -0.76586404E-02 -0.61814929E-02
 -0.46288331E-02  0.31383794E-02  0.19687539E-02
 -0.12839634E-01 -0.37786762E-03 -0.39976908E-02
 -0.76299537E-02  0.47679098E-02  0.40832803E-02
  0.51944604E-02  0.11925497E-02 -0.66590812E-02
 -0.94357318E-02  0.33188870E-02 -0.13342281E-01
  0.15860759E-02  0.49433622E-03  0.53832966E-02
 -0.28664989E-02 -0.13556034E-02 -0.15898221E-03
  0.53733429E-02 -0.46014218E-02  0.31511456E-02
 -0.53607639E-03  0.37062958E-02 -0.51543596E-02
 -0.96714166E-03  0.48543736E-02 -0.50284890E-02
  0.17745478E-01  0.49056837E-02 -0.96830487E-02
  0.76155504E-02 -0.19046742E-01  0.95746329E-02
  0.73352130E-03 -0.13172165E-01  0.48490551E-02
 -0.27375489E-02  0.50214346E-02  0.50344916E-02
 -0.93571326E-02 -0.30524656E-02  0.26044447E-02
 -0.22494583E-02  0.17155333E-01  0.18194267E-01
 -0.86576351E-02  0.91452740E-02  0.92645073E-02
 -0.98766106E-02  0.24034579E-02  0.19499324E-01
  0.11376481E-01 -0.51514715E-02  0.95973444E-02
 -0.43698169E-02 -0.13814660E-02 -0.67931065E-02
 -0.32106838E-02  0.15822548E-02 -0.13242181E-01
 -0.37883003E-01  0.80677145E-02 -0.47553142E-02
  0.15508390E-02  0.20815996E-02 -0.39825271E-02
  0.87134510E-02  0.15449736E-02 -0.74312002E-03
  0.12157459E-01  0.11347270E-01  0.10434902E-01
 -0.72597107E-03 -0.50873618E-02 -0.17726646E-01
 -0.88801173E-02  0.16151143E-01 -0.59422381E-02
 -0.12525175E-01  0.14431711E-01 -0.10828602E-01
 -0.93282815E-02  0.16498652E-01  0.18726926E-01
 -0.24922039E-02  0.57983751E-02  0.16115763E-02
 -0.11139702E-02  0.72904523E-02  0.13429897E-01
  0.48351136E-02 -0.72486870E-03 -0.40178995E-03
  0.97546556E-02  0.42653822E-02  0.13002784E-01
  0.56491218E-02 -0.34727915E-02 -0.37038479E-02
 -0.14800729E-01  0.45005150E-02  0.21182244E-02
  0.52956545E-02  0.36651299E-02  0.69294329E-05
 -0.88442027E-02 -0.58729245E-02  0.37871438E-02
  0.74173679E-02  0.42592866E-02 -0.16680514E-01
 -0.41017782E-02  0.17179499E-02 -0.25355557E-02
  0.21940559E-03 -0.80792001E-02 -0.26215437E-01
  0.11539305E-01  0.52036113E-02 -0.72943206E-02
  0.19295561E-01  0.49888977E-02 -0.82503554E-02
 -0.73307390E-02 -0.51054026E-02  0.87200063E-02
 -0.13830936E-01 -0.13177647E-01 -0.72654065E-02
 -0.12614292E-01 -0.15380423E-02 -0.62130762E-02
  0.13278359E-01 -0.71926255E-02 -0.31217487E-02
 -0.48145913E-02  0.17614400E-02 -0.10953479E-01
 -0.53181168E-02  0.43190785E-02 -0.12092269E-02
 -0.73234491E-02  0.12375783E-01  0.18922094E-01
  0.75639095E-02 -0.11302435E-01  0.73625742E-02
 -0.39798618E-03 -0.18173586E-02 -0.96727639E-03
 -0.35374302E-02  0.54953805E-02 -0.32136056E-03
 
           1
   1.00000000000000     
  0.18449275E+01  0.13148815E-01  0.26490686E-17  0.00000000E+00
  0.16666667E+00  0.16666667E+00  0.10000000E+00
  0.50000000E+00  0.16666667E+00  0.10000000E+00
  0.83333333E+00  0.16666667E+00  0.10000000E+00
  0.16666667E+00  0.50000000E+00  0.10000000E+00
  0.50000000E+00  0.50000000E+00  0.10000000E+00
  0.83333333E+00  0.50000000E+00  0.10000000E+00
  0.16666667E+00  0.83333333E+00  0.10000000E+00
  0.50000000E+00  0.83333333E+00  0.10000000E+00
  0.83333333E+00  0.83333333E+00  0.10000000E+00
  0.00000000E+00  0.00000000E+00  0.17010909E+00
  0.33333333E+00  0.00000000E+00  0.17010909E+00
  0.66666667E+00  0.00000000E+00  0.17010909E+00
  0.00000000E+00  0.33333333E+00  0.17010909E+00
  0.33333333E+00  0.33333333E+00  0.17010909E+00
  0.66666667E+00  0.33333333E+00  0.17010909E+00
  0.00000000E+00  0.66666667E+00  0.17010909E+00
  0.33333333E+00  0.66666667E+00  0.17010909E+00
  0.66666667E+00  0.66666667E+00  0.17010909E+00
  0.18209022E+00  0.16448385E+00  0.24674715E+00
  0.49850525E+00  0.16361298E+00  0.23753501E+00
  0.83082586E+00  0.16036475E+00  0.23865631E+00
  0.16473707E+00  0.49142864E+00  0.24337291E+00
  0.50861449E+00  0.49630730E+00  0.24166966E+00
  0.84181025E+00  0.49828542E+00  0.24274138E+00
  0.16753294E+00  0.81341547E+00  0.24166005E+00
  0.48973444E+00  0.83592248E+00  0.24264088E+00
  0.83102999E+00  0.82911728E+00  0.23263884E+00
  0.97275766E+00  0.97999669E+00  0.30447738E+00
  0.31092912E+00  0.98588033E+00  0.31612101E+00
  0.65188768E+00  0.99095161E+00  0.31152588E+00
  0.96604758E+00  0.31632257E+00  0.31360826E+00
  0.33709140E+00  0.35101395E+00  0.31126450E+00
  0.64405217E+00  0.32034510E+00  0.30959216E+00
  0.98736878E+00  0.64879720E+00  0.31063589E+00
  0.32246497E+00  0.65073370E+00  0.31439796E+00
  0.65817708E+00  0.66923127E+00  0.30668345E+00
  0.11977902E+00  0.14021889E+00  0.63614152E+00
  0.80972678E+00  0.56302759E+00  0.66683118E+00
  0.55034079E+00  0.98340629E+00  0.66137942E+00
  0.10626657E-01  0.56407145E+00  0.43784214E+00
  0.29854966E+00  0.27445879E+00  0.55854154E+00
  0.26419777E+00  0.65789187E+00  0.55397707E+00
  0.78354294E+00  0.57922760E+00  0.52483172E+00
  0.64430073E+00  0.99462630E+00  0.57146999E+00
  0.80922290E-01  0.38210125E-02  0.47686940E+00
  0.22483079E+00  0.30970732E+00  0.46326802E+00
  0.52830232E+00  0.43149959E+00  0.60495027E+00
  0.39390057E+00  0.68798662E+00  0.64118537E+00
  0.46419937E+00  0.81994375E+00  0.50337030E+00
  0.82372369E+00  0.13572277E+00  0.42634242E+00
  0.97833319E+00  0.73412058E+00  0.60684640E+00
  0.83358298E+00  0.26921545E+00  0.65222067E+00
  0.53551208E+00  0.16374222E+00  0.49358158E+00
  0.72570282E+00  0.70420337E+00  0.41718400E+00
  0.93635086E+00  0.94818669E-01  0.56488399E+00
  0.38507416E+00  0.60675886E+00  0.43869059E+00
  0.20724932E+00  0.11575940E+00  0.65406118E+00
  0.56444357E-01  0.19861771E+00  0.65422742E+00
  0.58604306E+00  0.97499872E+00  0.63021800E+00
  0.83337219E+00  0.55597971E+00  0.69803405E+00
  0.90956785E+00  0.59312323E+00  0.65614501E+00
  0.63940122E+00  0.95286476E+00  0.67703649E+00
  0.91114995E+00  0.60508302E+00  0.43007943E+00
  0.87981879E-01  0.63906784E+00  0.43282605E+00
  0.38333277E+00  0.31311034E+00  0.57278641E+00
  0.35248649E+00  0.71691781E+00  0.54705675E+00
  0.31542397E+00  0.56723636E+00  0.56253656E+00
  0.25422311E+00  0.20807119E+00  0.58166262E+00
  0.73750451E+00  0.49492250E+00  0.54046795E+00
  0.87797587E+00  0.53274605E+00  0.51376984E+00
  0.58963018E+00  0.79663999E-01  0.55855641E+00
  0.74560559E+00  0.31340867E-01  0.56448170E+00
  0.30504558E+00  0.71179926E+00  0.62502325E+00
  0.18610394E+00  0.99459197E+00  0.47237691E+00
  0.12624972E+00  0.28366873E+00  0.45347912E+00
  0.23471965E+00  0.28655907E+00  0.49445517E+00
  0.58779653E-01  0.96081453E+00  0.50477338E+00
  0.63628377E+00  0.44363248E+00  0.60721582E+00
  0.48018643E+00  0.49719429E+00  0.62652400E+00
  0.43198487E+00  0.78123218E+00  0.65369147E+00
  0.55438997E+00  0.78006575E+00  0.51671069E+00
  0.48018219E+00  0.92831765E+00  0.50235171E+00
  0.76528088E+00  0.19343756E+00  0.40543816E+00
  0.92231213E+00  0.11263561E+00  0.41612871E+00
  0.90913498E+00  0.74633883E+00  0.58335017E+00
  0.73038429E-01  0.78400497E+00  0.60326802E+00
  0.80335729E+00  0.37238567E+00  0.65823303E+00
  0.76073247E+00  0.21629233E+00  0.63465218E+00
  0.62333107E+00  0.14958997E+00  0.47620949E+00
  0.47595162E+00  0.24476811E+00  0.48217997E+00
  0.69850048E+00  0.77909954E+00  0.43839352E+00
  0.63025374E+00  0.65070448E+00  0.41685218E+00
  0.99563999E+00  0.14356090E+00  0.58771405E+00
  0.92545733E+00  0.17356866E+00  0.54299565E+00
  0.30846255E+00  0.53133195E+00  0.43734408E+00
  0.36985483E+00  0.65649273E+00  0.46742282E+00
  0.36227259E+00  0.97138797E+00  0.41664191E+00
  0.30309842E+00  0.95631493E+00  0.38279063E+00
  0.00000000E+00  0.00000000E+00  0.00000000E+00
  0.00000000E+00  0.00000000E+00  0.00000000E+00
  0.00000000E+00  0.00000000E+00  0.00000000E+00
  0.00000000E+00  0.00000000E+00  0.00000000E+00
  0.00000000E+00  0.00000000E+00  0.00000000E+00
  0.00000000E+00  0.00000000E+00  0.00000000E+00
  0.00000000E+00  0.00000000E+00  0.00000000E+00
  0.00000000E+00  0.00000000E+00  0.00000000E+00
  0.00000000E+00  0.00000000E+00  0.00000000E+00
  0.00000000E+00  0.00000000E+00  0.00000000E+00
  0.00000000E+00  0.00000000E+00  0.00000000E+00
  0.00000000E+00  0.00000000E+00  0.00000000E+00
  0.00000000E+00  0.00000000E+00  0.00000000E+00
  0.00000000E+00  0.00000000E+00  0.00000000E+00
  0.00000000E+00  0.00000000E+00  0.00000000E+00
  0.00000000E+00  0.00000000E+00  0.00000000E+00
  0.00000000E+00  0.00000000E+00  0.00000000E+00
  0.00000000E+00  0.00000000E+00  0.00000000E+00
  0.16255821E-03 -0.13252731E-04 -0.21051309E-04
 -0.12680825E-03 -0.40788521E-04 -0.63187521E-04
  0.11104070E-03  0.78963269E-04 -0.44480921E-04
  0.18390480E-03 -0.94324908E-04 -0.20322378E-04
 -0.13569467E-03 -0.23319531E-04  0.39874669E-04
 -0.23828603E-03  0.61026641E-04 -0.92870662E-05
  0.90403689E-05  0.50292282E-04  0.66891203E-04
  0.18824846E-04  0.46565525E-05 -0.34842848E-04
 -0.16344867E-03 -0.31951631E-04 -0.41924632E-05
 -0.19174051E-04 -0.78775479E-04  0.72234836E-04
  0.12849300E-03  0.13732150E-03  0.27931596E-04
  0.10192638E-03  0.47726936E-04  0.24484976E-04
  0.30774071E-04  0.60158250E-04  0.30368460E-04
  0.13717073E-03 -0.11133306E-04  0.83688056E-05
 -0.41879080E-04  0.67844412E-05  0.23734625E-04
 -0.47862181E-04  0.88486717E-04  0.20040406E-04
  0.18462776E-03 -0.10655203E-03 -0.10960261E-04
 -0.82241998E-04 -0.63051758E-05 -0.19739125E-04
  0.49563681E-03  0.38503307E-03 -0.22858628E-03
 -0.85707548E-03 -0.40390957E-03 -0.35876643E-04
  0.28502747E-03 -0.11459372E-03 -0.11192187E-03
 -0.53539635E-03  0.44798161E-03  0.92416436E-04
  0.61732519E-03  0.21947695E-03  0.13532592E-03
  0.13517245E-03  0.28946071E-04 -0.22051830E-03
 -0.18044635E-03  0.57605722E-03 -0.10089164E-03
  0.17153152E-03  0.16244956E-03 -0.25110003E-03
 -0.77383833E-03 -0.48410677E-03  0.10560622E-03
 -0.31668141E-03 -0.87193588E-03 -0.19750052E-03
 -0.51498548E-03  0.37463120E-03  0.70501487E-04
 -0.14599822E-02 -0.34376237E-04 -0.14142715E-03
 -0.87380280E-03  0.52805232E-03  0.13514063E-03
  0.63319406E-03  0.12842194E-03 -0.23314779E-03
 -0.10565126E-02  0.39673471E-03 -0.46196820E-03
  0.16614349E-03  0.73995422E-04  0.18059693E-03
 -0.32038866E-03 -0.13575734E-03 -0.13748859E-04
  0.63107333E-03 -0.49377504E-03  0.10877197E-03
 -0.61346211E-04  0.39762398E-03 -0.16844170E-03
 -0.11223316E-03  0.53252620E-03 -0.16824485E-03
  0.19718282E-02  0.56779438E-03 -0.33115567E-03
  0.11292792E-02 -0.23379253E-02  0.26158117E-03
  0.20693412E-03 -0.15536952E-02  0.13393945E-03
 -0.19452612E-03  0.57928641E-03  0.92491574E-04
 -0.85232666E-03 -0.41041665E-03  0.14281716E-03
 -0.29472442E-03  0.19407439E-02  0.56125576E-03
 -0.11342564E-02  0.95286955E-03  0.31157008E-03
 -0.87388542E-03  0.34247141E-03  0.64797966E-03
  0.70227488E-03 -0.87556463E-03  0.25319551E-03
 -0.36227225E-03 -0.30336102E-03 -0.19678521E-03
 -0.20266009E-03  0.28895475E-03 -0.44424131E-03
 -0.42450524E-02  0.75352439E-03 -0.96778622E-04
  0.19365496E-03  0.11129775E-03 -0.11467715E-03
  0.11050182E-02 -0.18938253E-05 -0.19160864E-04
  0.14269452E-02  0.14623320E-02  0.33377128E-03
 -0.12056154E-03 -0.40892791E-03 -0.64132094E-03
 -0.86403219E-03  0.17808549E-02 -0.15640240E-03
 -0.15104908E-02  0.16426649E-02 -0.36610825E-03
 -0.10448197E-02  0.18447045E-02  0.59863559E-03
 -0.17685609E-03  0.69686652E-03  0.41089603E-05
 -0.30817110E-04  0.99250978E-03  0.33840578E-03
  0.59350265E-03 -0.16667590E-03 -0.43785601E-04
  0.97732251E-03  0.35783398E-03  0.43018090E-03
  0.59982288E-03 -0.42280909E-03 -0.12462553E-03
 -0.16600160E-02  0.43696287E-03  0.79321262E-04
  0.59886419E-03  0.48480535E-03 -0.67561671E-06
 -0.11714361E-02 -0.62462192E-03  0.15509382E-03
  0.68596422E-03  0.48948916E-03 -0.51456484E-03
 -0.52006735E-03  0.10226227E-03 -0.29648022E-04
  0.67560464E-04 -0.98231097E-03 -0.80708819E-03
  0.13424326E-02  0.61178453E-03 -0.22497601E-03
  0.21867996E-02  0.48839918E-03 -0.30077029E-03
 -0.92789436E-03 -0.63941100E-03  0.33842646E-03
 -0.15475705E-02 -0.15207002E-02 -0.21154101E-03
 -0.14961823E-02 -0.40443904E-03 -0.25055439E-03
  0.13952202E-02 -0.75712403E-03 -0.86075357E-04
 -0.51749437E-03  0.34417106E-03 -0.37407476E-03
 -0.62200594E-03  0.52255324E-03 -0.16164872E-04
 -0.80605879E-03  0.15206586E-02  0.61430581E-03
  0.82750692E-03 -0.12251345E-02  0.27989296E-03
 -0.42715733E-04 -0.20170605E-03 -0.33989803E-04
 -0.41166733E-03  0.60731560E-03 -0.13253534E-04
  0.00000000E+00  0.00000000E+00  0.00000000E+00
  0.00000000E+00  0.00000000E+00  0.00000000E+00
  0.00000000E+00  0.00000000E+00  0.00000000E+00
  0.00000000E+00  0.00000000E+00  0.00000000E+00
  0.00000000E+00  0.00000000E+00  0.00000000E+00
  0.00000000E+00  0.00000000E+00  0.00000000E+00
  0.00000000E+00  0.00000000E+00  0.00000000E+00
  0.00000000E+00  0.00000000E+00  0.00000000E+00
  0.00000000E+00  0.00000000E+00  0.00000000E+00
  0.00000000E+00  0.00000000E+00  0.00000000E+00
  0.00000000E+00  0.00000000E+00  0.00000000E+00
  0.00000000E+00  0.00000000E+00  0.00000000E+00
  0.00000000E+00  0.00000000E+00  0.00000000E+00
  0.00000000E+00  0.00000000E+00  0.00000000E+00
  0.00000000E+00  0.00000000E+00  0.00000000E+00
  0.00000000E+00  0.00000000E+00  0.00000000E+00
  0.00000000E+00  0.00000000E+00  0.00000000E+00
  0.00000000E+00  0.00000000E+00  0.00000000E+00
  0.00000000E+00  0.00000000E+00  0.00000000E+00
  0.00000000E+00  0.00000000E+00  0.00000000E+00
  0.00000000E+00  0.00000000E+00  0.00000000E+00
  0.00000000E+00  0.00000000E+00  0.00000000E+00
  0.00000000E+00  0.00000000E+00  0.00000000E+00
  0.00000000E+00  0.00000000E+00  0.00000000E+00
  0.00000000E+00  0.00000000E+00  0.00000000E+00
  0.00000000E+00  0.00000000E+00  0.00000000E+00
  0.00000000E+00  0.00000000E+00  0.00000000E+00
  0.00000000E+00  0.00000000E+00  0.00000000E+00
  0.00000000E+00  0.00000000E+00  0.00000000E+00
  0.00000000E+00  0.00000000E+00  0.00000000E+00
  0.00000000E+00  0.00000000E+00  0.00000000E+00
  0.00000000E+00  0.00000000E+00  0.00000000E+00
  0.00000000E+00  0.00000000E+00  0.00000000E+00
  0.00000000E+00  0.00000000E+00  0.00000000E+00
  0.00000000E+00  0.00000000E+00  0.00000000E+00
  0.00000000E+00  0.00000000E+00  0.00000000E+00
  0.00000000E+00  0.00000000E+00  0.00000000E+00
  0.00000000E+00  0.00000000E+00  0.00000000E+00
  0.00000000E+00  0.00000000E+00  0.00000000E+00
  0.00000000E+00  0.00000000E+00  0.00000000E+00
  0.00000000E+00  0.00000000E+00  0.00000000E+00
  0.00000000E+00  0.00000000E+00  0.00000000E+00
  0.00000000E+00  0.00000000E+00  0.00000000E+00
  0.00000000E+00  0.00000000E+00  0.00000000E+00
  0.00000000E+00  0.00000000E+00  0.00000000E+00
  0.00000000E+00  0.00000000E+00  0.00000000E+00
  0.00000000E+00  0.00000000E+00  0.00000000E+00
  0.00000000E+00  0.00000000E+00  0.00000000E+00
  0.00000000E+00  0.00000000E+00  0.00000000E+00
  0.00000000E+00  0.00000000E+00  0.00000000E+00
  0.00000000E+00  0.00000000E+00  0.00000000E+00
  0.00000000E+00  0.00000000E+00  0.00000000E+00
  0.00000000E+00  0.00000000E+00  0.00000000E+00
  0.00000000E+00  0.00000000E+00  0.00000000E+00
  0.00000000E+00  0.00000000E+00  0.00000000E+00
  0.00000000E+00  0.00000000E+00  0.00000000E+00
  0.00000000E+00  0.00000000E+00  0.00000000E+00
  0.00000000E+00  0.00000000E+00  0.00000000E+00
  0.00000000E+00  0.00000000E+00  0.00000000E+00
  0.00000000E+00  0.00000000E+00  0.00000000E+00
  0.00000000E+00  0.00000000E+00  0.00000000E+00
  0.00000000E+00  0.00000000E+00  0.00000000E+00
  0.00000000E+00  0.00000000E+00  0.00000000E+00
  0.00000000E+00  0.00000000E+00  0.00000000E+00
  0.00000000E+00  0.00000000E+00  0.00000000E+00
  0.00000000E+00  0.00000000E+00  0.00000000E+00
  0.00000000E+00  0.00000000E+00  0.00000000E+00
  0.00000000E+00  0.00000000E+00  0.00000000E+00
  0.00000000E+00  0.00000000E+00  0.00000000E+00
  0.00000000E+00  0.00000000E+00  0.00000000E+00
  0.00000000E+00  0.00000000E+00  0.00000000E+00
  0.00000000E+00  0.00000000E+00  0.00000000E+00
  0.00000000E+00  0.00000000E+00  0.00000000E+00
  0.00000000E+00  0.00000000E+00  0.00000000E+00
  0.00000000E+00  0.00000000E+00  0.00000000E+00
  0.00000000E+00  0.00000000E+00  0.00000000E+00
  0.00000000E+00  0.00000000E+00  0.00000000E+00
  0.00000000E+00  0.00000000E+00  0.00000000E+00
  0.00000000E+00  0.00000000E+00  0.00000000E+00
  0.00000000E+00  0.00000000E+00  0.00000000E+00
  0.00000000E+00  0.00000000E+00  0.00000000E+00
  0.00000000E+00  0.00000000E+00  0.00000000E+00
  0.00000000E+00  0.00000000E+00  0.00000000E+00
  0.00000000E+00  0.00000000E+00  0.00000000E+00
  0.00000000E+00  0.00000000E+00  0.00000000E+00
  0.00000000E+00  0.00000000E+00  0.00000000E+00
  0.00000000E+00  0.00000000E+00  0.00000000E+00
  0.00000000E+00  0.00000000E+00  0.00000000E+00
  0.00000000E+00  0.00000000E+00  0.00000000E+00
  0.00000000E+00  0.00000000E+00  0.00000000E+00
  0.00000000E+00  0.00000000E+00  0.00000000E+00
  0.00000000E+00  0.00000000E+00  0.00000000E+00
  0.00000000E+00  0.00000000E+00  0.00000000E+00
  0.00000000E+00  0.00000000E+00  0.00000000E+00
  0.00000000E+00  0.00000000E+00  0.00000000E+00
  0.00000000E+00  0.00000000E+00  0.00000000E+00
  0.00000000E+00  0.00000000E+00  0.00000000E+00
  0.00000000E+00  0.00000000E+00  0.00000000E+00
