Au Pb 
 1.0000000000000000
     8.9456078889999997    0.0000000000000000    0.0000000000000000
     0.0000000000000000    7.3040582560000002    0.0000000000000000
     0.0000000000000000    0.0000000000000000   27.7471236840000017
  30   1
Cartesian
  1.4909300000000001  0.0000000000000000 10.0000000000000000
  0.0000000000000000  2.4346899999999998 10.8607899999999997
  1.4909300000000001  4.8693700000000000 11.7215799999999994
  0.0000000000000000  0.0000000000000000 12.5823699999999992
  1.4909300000000001  2.4346899999999998 13.4431700000000003
  0.0000000000000000  4.8693700000000000 14.3039600000000000
  1.4717499999999999  0.0593300000000000 15.0983800000000006
  0.0000000000000000  2.4695999999999998 16.0861400000000003
  1.5569900000000001  4.7346199999999996 16.9090300000000013
  0.0000000000000000  0.0356300000000000 17.6284199999999984
  4.4728000000000003  0.0000000000000000 10.0000000000000000
  2.9818699999999998  2.4346899999999998 10.8607899999999997
  4.4728000000000003  4.8693700000000000 11.7215799999999994
  2.9818699999999998  0.0000000000000000 12.5823699999999992
  4.4728000000000003  2.4346899999999998 13.4431700000000003
  2.9818699999999998  4.8693700000000000 14.3039600000000000
  4.4728000000000003  0.0286200000000000 15.1003600000000002
  3.0024299999999999  2.3774999999999999 16.1255400000000009
  4.4728000000000003  4.7356800000000003 16.9230699999999992
  2.9782199999999999 -0.1785100000000000 17.5837299999999992
  7.4546700000000001  0.0000000000000000 10.0000000000000000
  5.9637399999999996  2.4346899999999998 10.8607899999999997
  7.4546700000000001  4.8693700000000000 11.7215799999999994
  5.9637399999999996  0.0000000000000000 12.5823699999999992
  7.4546700000000001  2.4346899999999998 13.4431700000000003
  5.9637399999999996  4.8693700000000000 14.3039600000000000
  7.4738600000000002  0.0593300000000000 15.0983800000000006
  5.9431799999999999  2.3774999999999999 16.1255400000000009
  7.3886200000000004  4.7346199999999996 16.9090300000000013
  5.9673900000000000 -0.1785100000000000 17.5837299999999992
  0.0000000000000000  5.0578599999999998 19.2849299999999992
