Au Pb 
 1.0000000000000000
     5.9637385930000004    0.0000000000000000    0.0000000000000000
     0.0000000000000000    7.3040582560000002    0.0000000000000000
     0.0000000000000000    0.0000000000000000   27.7471236840000017
  20   1
Cartesian
  1.4909300000000001  0.0000000000000000 10.0000000000000000
  0.0000000000000000  2.4346899999999998 10.8607899999999997
  1.4909300000000001  4.8693700000000000 11.7215799999999994
  0.0000000000000000  0.0000000000000000 12.5823699999999992
  1.4909300000000001  2.4346899999999998 13.4431700000000003
  0.0000000000000000  4.8693700000000000 14.3039600000000000
  1.4852600000000000  0.0481800000000000 15.1082000000000001
  0.0000000000000000  2.4536400000000000 16.0764999999999993
  1.5268500000000000  4.7446999999999999 16.9097499999999989
  0.0000000000000000  0.0392900000000000 17.6467400000000012
  4.4728000000000003  0.0000000000000000 10.0000000000000000
  2.9818699999999998  2.4346899999999998 10.8607899999999997
  4.4728000000000003  4.8693700000000000 11.7215799999999994
  2.9818699999999998  0.0000000000000000 12.5823699999999992
  4.4728000000000003  2.4346899999999998 13.4431700000000003
  2.9818699999999998  4.8693700000000000 14.3039600000000000
  4.4784800000000002  0.0481800000000000 15.1082000000000001
  2.9818699999999998  2.3721999999999999 16.1202700000000014
  4.4368900000000000  4.7446999999999999 16.9097499999999989
  2.9818699999999998 -0.1627700000000000 17.6290499999999994
  0.0000000000000000  5.0686499999999999 19.3088400000000000
