Au Pb 
 1.0000000000000000
     5.9637385930000004    0.0000000000000000    0.0000000000000000
     0.0000000000000000    7.3040582560000002    0.0000000000000000
     0.0000000000000000    0.0000000000000000   27.7471236840000017
  20   1
Cartesian
  1.4909300000000001  0.0000000000000000 10.0000000000000000
  0.0000000000000000  2.4346899999999998 10.8607899999999997
  1.4909300000000001  4.8693700000000000 11.7215799999999994
  0.0000000000000000  0.0000000000000000 12.5823699999999992
  1.4909300000000001  2.4346899999999998 13.4431700000000003
  0.0000000000000000  4.8693700000000000 14.3039600000000000
  1.4909300000000001 -0.0072300000000000 15.1025399999999994
 -0.0283300000000000  2.3974299999999999 16.0598799999999997
  1.4909300000000001  4.7115299999999998 17.0062099999999994
 -0.0275200000000000 -0.1986500000000000 17.6516699999999993
  4.4728000000000003  0.0000000000000000 10.0000000000000000
  2.9818699999999998  2.4346899999999998 10.8607899999999997
  4.4728000000000003  4.8693700000000000 11.7215799999999994
  2.9818699999999998  0.0000000000000000 12.5823699999999992
  4.4728000000000003  2.4346899999999998 13.4431700000000003
  2.9818699999999998  4.8693700000000000 14.3039600000000000
  4.4728000000000003  0.0068600000000000 15.1085499999999993
  3.0102000000000002  2.3974299999999999 16.0598799999999997
  4.4728000000000003  4.7367600000000003 16.9309399999999997
  3.0093899999999998 -0.1986500000000000 17.6516699999999993
  1.4909300000000001  2.1276299999999999 18.6365000000000016
