Au Pb                                   
   1.00000000000000     
     8.9456078887910095    0.0000000000000000    0.0000000000000000
     0.0000000000000000    7.3040582555179547    0.0000000000000000
     0.0000000000000000    0.0000000000000000   27.7471236839874962
   Au   Pb
    30     1
Selective dynamics
Direct
  0.1666666666666643  0.0000000000000000  0.3603977159539227   F   F   F
  0.0000000000000000  0.3333333333333357  0.3914204457419359   F   F   F
  0.1666666666666643  0.6666666666666643  0.4224431755299562   F   F   F
  0.0000000000000000  0.0000000000000000  0.4534659053179766   F   F   F
  0.1666666666666643  0.3333333333333357  0.4844886351059898   F   F   F
  0.0000000000000000  0.6666666666666643  0.5155113648940102   F   F   F
  0.1659201556530547  0.0003645119524833  0.5440665983617592   T   T   T
  0.0000000000000000  0.3311410019455394  0.5739683027994076   T   T   T
  0.1666729307036121  0.6469580414467444  0.6147889458672537   T   T   T
  0.0000000000000000  0.9903997438519028  0.6373258679709792   T   T   T
  0.5000000000000000  0.0000000000000000  0.3603977159539227   F   F   F
  0.3333333333333357  0.3333333333333357  0.3914204457419359   F   F   F
  0.5000000000000000  0.6666666666666643  0.4224431755299562   F   F   F
  0.3333333333333357  0.0000000000000000  0.4534659053179766   F   F   F
  0.5000000000000000  0.3333333333333357  0.4844886351059898   F   F   F
  0.3333333333333357  0.6666666666666643  0.5155113648940102   F   F   F
  0.5000000000000000  0.0087576534229115  0.5445672149628678   T   T   T
  0.3356645226454873  0.3330078322916421  0.5820910337350469   T   T   T
  0.5000000000000000  0.6583645010009462  0.6091478575681464   T   T   T
  0.3294253220321934  0.9804330574110978  0.6332073024752205   T   T   T
  0.8333333333333357  0.0000000000000000  0.3603977159539227   F   F   F
  0.6666666666666643  0.3333333333333357  0.3914204457419359   F   F   F
  0.8333333333333357  0.6666666666666643  0.4224431755299562   F   F   F
  0.6666666666666643  0.0000000000000000  0.4534659053179766   F   F   F
  0.8333333333333357  0.3333333333333357  0.4844886351059898   F   F   F
  0.6666666666666643  0.6666666666666643  0.5155113648940102   F   F   F
  0.8340798443469453  0.0003645119524833  0.5440665983617592   T   T   T
  0.6643354773545127  0.3330078322916421  0.5820910337350469   T   T   T
  0.8333270692963950  0.6469580414467444  0.6147889458672537   T   T   T
  0.6705746779678066  0.9804330574110978  0.6332073024752205   T   T   T
  0.0000000000000000  0.3707441308022084  0.6760077966703548   T   T   T
 
  0.00000000E+00  0.00000000E+00  0.00000000E+00
  0.00000000E+00  0.00000000E+00  0.00000000E+00
  0.00000000E+00  0.00000000E+00  0.00000000E+00
  0.00000000E+00  0.00000000E+00  0.00000000E+00
  0.00000000E+00  0.00000000E+00  0.00000000E+00
  0.00000000E+00  0.00000000E+00  0.00000000E+00
  0.00000000E+00  0.00000000E+00  0.00000000E+00
  0.00000000E+00  0.00000000E+00  0.00000000E+00
  0.00000000E+00  0.00000000E+00  0.00000000E+00
  0.00000000E+00  0.00000000E+00  0.00000000E+00
  0.00000000E+00  0.00000000E+00  0.00000000E+00
  0.00000000E+00  0.00000000E+00  0.00000000E+00
  0.00000000E+00  0.00000000E+00  0.00000000E+00
  0.00000000E+00  0.00000000E+00  0.00000000E+00
  0.00000000E+00  0.00000000E+00  0.00000000E+00
  0.00000000E+00  0.00000000E+00  0.00000000E+00
  0.00000000E+00  0.00000000E+00  0.00000000E+00
  0.00000000E+00  0.00000000E+00  0.00000000E+00
  0.00000000E+00  0.00000000E+00  0.00000000E+00
  0.00000000E+00  0.00000000E+00  0.00000000E+00
  0.00000000E+00  0.00000000E+00  0.00000000E+00
  0.00000000E+00  0.00000000E+00  0.00000000E+00
  0.00000000E+00  0.00000000E+00  0.00000000E+00
  0.00000000E+00  0.00000000E+00  0.00000000E+00
  0.00000000E+00  0.00000000E+00  0.00000000E+00
  0.00000000E+00  0.00000000E+00  0.00000000E+00
  0.00000000E+00  0.00000000E+00  0.00000000E+00
  0.00000000E+00  0.00000000E+00  0.00000000E+00
  0.00000000E+00  0.00000000E+00  0.00000000E+00
  0.00000000E+00  0.00000000E+00  0.00000000E+00
  0.00000000E+00  0.00000000E+00  0.00000000E+00
