Au Pb 
 1.0000000000000000
     2.9818692960000002    0.0000000000000000    0.0000000000000000
     0.0000000000000000    7.3040582560000002    0.0000000000000000
     0.0000000000000000    0.0000000000000000   27.7471236840000017
  10   1
Cartesian
  1.4909300000000001  0.0000000000000000 10.0000000000000000
  0.0000000000000000  2.4346899999999998 10.8607899999999997
  1.4909300000000001  4.8693700000000000 11.7215799999999994
  0.0000000000000000  0.0000000000000000 12.5823699999999992
  1.4909300000000001  2.4346899999999998 13.4431700000000003
  0.0000000000000000  4.8693700000000000 14.3039600000000000
  1.4909300000000001  0.0011400000000000 15.1318800000000007
  0.0000000000000000  2.3258500000000000 16.0977400000000017
  1.4909300000000001  4.6742699999999999 16.8588999999999984
  0.0000000000000000 -0.0957400000000000 17.6818899999999992
  0.0000000000000000 -2.3843600000000000 19.4842699999999986
