Au Pb 
 1.0000000000000000
     8.9456078889999997    0.0000000000000000    0.0000000000000000
     0.0000000000000000    7.3040582560000002    0.0000000000000000
     0.0000000000000000    0.0000000000000000   27.7471236840000017
  30   1
Cartesian
  1.4909300000000001  0.0000000000000000 10.0000000000000000
  0.0000000000000000  2.4346899999999998 10.8607899999999997
  1.4909300000000001  4.8693700000000000 11.7215799999999994
  0.0000000000000000  0.0000000000000000 12.5823699999999992
  1.4909300000000001  2.4346899999999998 13.4431700000000003
  0.0000000000000000  4.8693700000000000 14.3039600000000000
  1.4740700000000000  0.0723600000000000 15.1084899999999998
 -0.0000000000000000  2.4887000000000001 16.1016399999999997
  1.5585300000000000  4.7742399999999998 16.9010899999999999
 -0.0000000000000000  0.0563600000000000 17.6453400000000009
  4.4728000000000003  0.0000000000000000 10.0000000000000000
  2.9818699999999998  2.4346899999999998 10.8607899999999997
  4.4728000000000003  4.8693700000000000 11.7215799999999994
  2.9818699999999998  0.0000000000000000 12.5823699999999992
  4.4728000000000003  2.4346899999999998 13.4431700000000003
  2.9818699999999998  4.8693700000000000 14.3039600000000000
  4.4728000000000003  0.0396400000000000 15.1074500000000000
  3.0014099999999999  2.4026000000000001 16.1345099999999988
  4.4728000000000003  4.7634100000000004 16.9365200000000016
  2.9847199999999998 -0.1415700000000000 17.5992899999999999
  7.4546700000000001  0.0000000000000000 10.0000000000000000
  5.9637399999999996  2.4346899999999998 10.8607899999999997
  7.4546700000000001  4.8693700000000000 11.7215799999999994
  5.9637399999999996  0.0000000000000000 12.5823699999999992
  7.4546700000000001  2.4346899999999998 13.4431700000000003
  5.9637399999999996  4.8693700000000000 14.3039600000000000
  7.4715400000000001  0.0723600000000000 15.1084899999999998
  5.9442000000000004  2.4026000000000001 16.1345099999999988
  7.3870800000000001  4.7742399999999998 16.9010899999999999
  5.9608900000000000 -0.1415700000000000 17.5992899999999999
 -0.0000000000000000  5.0606499999999999 19.2788499999999985
