Au Pb 
 1.0000000000000000
     8.9456078889999997    0.0000000000000000    0.0000000000000000
     0.0000000000000000    7.3040582560000002    0.0000000000000000
     0.0000000000000000    0.0000000000000000   27.7471236840000017
  30   1
Cartesian
  1.4909300000000001  0.0000000000000000 10.0000000000000000
  0.0000000000000000  2.4346899999999998 10.8607899999999997
  1.4909300000000001  4.8693700000000000 11.7215799999999994
  0.0000000000000000  0.0000000000000000 12.5823699999999992
  1.4909300000000001  2.4346899999999998 13.4431700000000003
  0.0000000000000000  4.8693700000000000 14.3039600000000000
  1.4842599999999999  0.0026600000000000 15.0962800000000001
  0.0000000000000000  2.4186700000000001 15.9259699999999995
  1.4909900000000000  4.7254199999999997 17.0586200000000012
  0.0000000000000000 -0.0701200000000000 17.6839599999999990
  4.4728000000000003  0.0000000000000000 10.0000000000000000
  2.9818699999999998  2.4346899999999998 10.8607899999999997
  4.4728000000000003  4.8693700000000000 11.7215799999999994
  2.9818699999999998  0.0000000000000000 12.5823699999999992
  4.4728000000000003  2.4346899999999998 13.4431700000000003
  2.9818699999999998  4.8693700000000000 14.3039600000000000
  4.4728000000000003  0.0639700000000000 15.1101700000000001
  3.0027200000000001  2.4323100000000002 16.1513500000000008
  4.4728000000000003  4.8087299999999997 16.9021000000000008
  2.9469099999999999 -0.1429200000000000 17.5696800000000017
  7.4546700000000001  0.0000000000000000 10.0000000000000000
  5.9637399999999996  2.4346899999999998 10.8607899999999997
  7.4546700000000001  4.8693700000000000 11.7215799999999994
  5.9637399999999996  0.0000000000000000 12.5823699999999992
  7.4546700000000001  2.4346899999999998 13.4431700000000003
  5.9637399999999996  4.8693700000000000 14.3039600000000000
  7.4613500000000004  0.0026600000000000 15.0962800000000001
  5.9428799999999997  2.4323100000000002 16.1513500000000008
  7.4546200000000002  4.7254199999999997 17.0586200000000012
  5.9987000000000004 -0.1429200000000000 17.5696800000000017
  0.0000000000000000  2.7079399999999998 18.7572699999999983
