Au  H  O                                
   1.00000000000000     
     7.2859499414529516    0.0000000000000000    0.0000000000000000
     0.0000000000000000    8.9234298240103520    0.0000000000000000
     0.0000000000000000    0.0000000000000000   30.8692594813161492
   Au   H    O 
    27    14     7
Selective dynamics
Direct
  0.6475971618018869  0.1671628592005067  0.6078466337504679   T   T   T
  0.6462893368948660  0.4964585451781138  0.6075388621807030   T   T   T
  0.6504307825934751  0.8326473478071552  0.6082980748594505   T   T   T
  0.3191466572184879 -0.0003987521496214  0.5843898929536678   T   T   T
  0.3176256628303053  0.3325095718276194  0.5846416218651617   T   T   T
  0.3198540435896983  0.6666144266611300  0.5835773766567961   T   T   T
 -0.0036149413029099  0.1663233724497225  0.5584734206997860   T   T   T
 -0.0038701764564854  0.4997181565033201  0.5584430272066219   T   T   T
  0.9961878217737583  0.8333079126747338  0.5588967744908075   T   T   T
  0.6666666699999979  0.0000000000000000  0.5278159399999964   F   F   F
  0.6666666699999979  0.3333333300000021  0.5278159399999964   F   F   F
  0.6666666699999979  0.6666666699999979  0.5278159399999964   F   F   F
  0.3333333300000021  0.1666666699999979  0.5000000000000000   F   F   F
  0.3333333300000021  0.5000000000000000  0.5000000000000000   F   F   F
  0.3333333300000021  0.8333333300000021  0.5000000000000000   F   F   F
  0.0000000000000000  0.0000000000000000  0.4721840600000036   F   F   F
  0.0000000000000000  0.3333333300000021  0.4721840600000036   F   F   F
  0.0000000000000000  0.6666666699999979  0.4721840600000036   F   F   F
  0.6666666699999979  0.1666666699999979  0.4443681200000000   F   F   F
  0.6666666699999979  0.5000000000000000  0.4443681200000000   F   F   F
  0.6666666699999979  0.8333333300000021  0.4443681200000000   F   F   F
  0.3333333300000021  0.0000000000000000  0.4165521799999965   F   F   F
  0.3333333300000021  0.3333333300000021  0.4165521799999965   F   F   F
  0.3333333300000021  0.6666666699999979  0.4165521799999965   F   F   F
  0.0000000000000000  0.1666666699999979  0.3887362400000001   F   F   F
  0.0000000000000000  0.5000000000000000  0.3887362400000001   F   F   F
  0.0000000000000000  0.8333333300000021  0.3887362400000001   F   F   F
  0.8927082483961155  0.1072385523822350  0.7200031164040770   T   T   T
  0.7147226418968347  0.8683918075980758  0.7045972748905527   T   T   T
  0.7164535767879627  0.4715362940136170  0.7377616033066188   T   T   T
  0.5227339401995725  0.4258647991429038  0.7225251997244438   T   T   T
  0.8505290246602532  0.0110469063446320  0.7602747501740676   T   T   T
  0.6231051132779197  0.7082450438624238  0.7023635971343349   T   T   T
  0.4018519849439054  0.9062304095849223  0.7201994952902535   T   T   T
  0.3568701528809322  0.1628887587793326  0.7190416605105571   T   T   T
  0.0694742635076116  0.6661468461792913  0.6579515163790804   T   T   T
  0.1730145963878635  0.6190314994302315  0.6990429582254675   T   T   T
  0.1948986112737719  0.9443492589913796  0.7300875707684799   T   T   T
  0.1005605889790522  0.2986322727034340  0.7131859505567869   T   T   T
  0.9440441062855824  0.3896834240571588  0.6932154362737508   T   T   T
  0.3779123132082456  0.2548896040822557  0.6766887549884182   T   T   T
  0.6103354047343883  0.8123540244312771  0.6926189162445231   T   T   T
  0.6040031130221166  0.5122966538831857  0.7259705949587013   T   T   T
  0.8832319954340665  0.0029435158533914  0.7299973172429117   T   T   T
  0.3575047900379241  0.2667455457922416  0.7076016473336744   T   T   T
  0.0506253192356953  0.6281256749739142  0.6870758309606504   T   T   T
  0.3204278991873268  0.9755290992545047  0.7354859015349945   T   T   T
  0.9663277678451707  0.3054705269588191  0.7123708484671969   T   T   T
 
  0.00000000E+00  0.00000000E+00  0.00000000E+00
  0.00000000E+00  0.00000000E+00  0.00000000E+00
  0.00000000E+00  0.00000000E+00  0.00000000E+00
  0.00000000E+00  0.00000000E+00  0.00000000E+00
  0.00000000E+00  0.00000000E+00  0.00000000E+00
  0.00000000E+00  0.00000000E+00  0.00000000E+00
  0.00000000E+00  0.00000000E+00  0.00000000E+00
  0.00000000E+00  0.00000000E+00  0.00000000E+00
  0.00000000E+00  0.00000000E+00  0.00000000E+00
  0.00000000E+00  0.00000000E+00  0.00000000E+00
  0.00000000E+00  0.00000000E+00  0.00000000E+00
  0.00000000E+00  0.00000000E+00  0.00000000E+00
  0.00000000E+00  0.00000000E+00  0.00000000E+00
  0.00000000E+00  0.00000000E+00  0.00000000E+00
  0.00000000E+00  0.00000000E+00  0.00000000E+00
  0.00000000E+00  0.00000000E+00  0.00000000E+00
  0.00000000E+00  0.00000000E+00  0.00000000E+00
  0.00000000E+00  0.00000000E+00  0.00000000E+00
  0.00000000E+00  0.00000000E+00  0.00000000E+00
  0.00000000E+00  0.00000000E+00  0.00000000E+00
  0.00000000E+00  0.00000000E+00  0.00000000E+00
  0.00000000E+00  0.00000000E+00  0.00000000E+00
  0.00000000E+00  0.00000000E+00  0.00000000E+00
  0.00000000E+00  0.00000000E+00  0.00000000E+00
  0.00000000E+00  0.00000000E+00  0.00000000E+00
  0.00000000E+00  0.00000000E+00  0.00000000E+00
  0.00000000E+00  0.00000000E+00  0.00000000E+00
  0.00000000E+00  0.00000000E+00  0.00000000E+00
  0.00000000E+00  0.00000000E+00  0.00000000E+00
  0.00000000E+00  0.00000000E+00  0.00000000E+00
  0.00000000E+00  0.00000000E+00  0.00000000E+00
  0.00000000E+00  0.00000000E+00  0.00000000E+00
  0.00000000E+00  0.00000000E+00  0.00000000E+00
  0.00000000E+00  0.00000000E+00  0.00000000E+00
  0.00000000E+00  0.00000000E+00  0.00000000E+00
  0.00000000E+00  0.00000000E+00  0.00000000E+00
  0.00000000E+00  0.00000000E+00  0.00000000E+00
  0.00000000E+00  0.00000000E+00  0.00000000E+00
  0.00000000E+00  0.00000000E+00  0.00000000E+00
  0.00000000E+00  0.00000000E+00  0.00000000E+00
  0.00000000E+00  0.00000000E+00  0.00000000E+00
  0.00000000E+00  0.00000000E+00  0.00000000E+00
  0.00000000E+00  0.00000000E+00  0.00000000E+00
  0.00000000E+00  0.00000000E+00  0.00000000E+00
  0.00000000E+00  0.00000000E+00  0.00000000E+00
  0.00000000E+00  0.00000000E+00  0.00000000E+00
  0.00000000E+00  0.00000000E+00  0.00000000E+00
  0.00000000E+00  0.00000000E+00  0.00000000E+00
