Au  H  O                                
   1.00000000000000     
     8.4340000000000011    0.0000000000000000    0.0000000000000000
     0.0000000000000000    6.6676624464650276    0.0000000000000000
     0.0000000000000000    0.0000000000000000   28.6679611804045358
   Au   H    O 
    28     6     3
Selective dynamics
Direct
  0.2500000000000000  0.8999999999999986  0.0592996477601631   F   F   F
  0.0000000000000000  0.6000000000000014  0.0825578850812860   F   F   F
  0.2500000000000000  0.2999999999999972  0.1058161224024019   F   F   F
  0.0000000000000000  0.0000000000000000  0.1290743597235249   F   F   F
  0.2500000000000000  0.7000000000000028  0.1523325970446479   F   F   F
  0.0000000000000000  0.3999999999999986  0.1755908343657637   F   F   F
  0.2500000000000000  0.1000000000000014  0.1988490716868867   F   F   F
  0.9996481144154612  0.8374572402089177  0.2232277767234504   T   T   T
  0.2457697923059982  0.5240226947879398  0.2441212553962906   T   T   T
  0.0061653367873932  0.2417076420788654  0.2686571920064168   T   T   T
  0.2614665274527526  0.9037471194658522  0.2999026516059313   T   T   T
  0.0053795282200367  0.6345251351823438  0.3214187368146235   T   T   T
  0.2426354605530711  0.3304440745225281  0.3354816014507741   T   T   T
  0.0057628718090844  0.0463514512496430  0.3538994982349810   T   T   T
  0.7500000000000000  0.8999999999999986  0.0592996477601631   F   F   F
  0.5000000000000000  0.6000000000000014  0.0825578850812860   F   F   F
  0.7500000000000000  0.2999999999999972  0.1058161224024019   F   F   F
  0.5000000000000000  0.0000000000000000  0.1290743597235249   F   F   F
  0.7500000000000000  0.7000000000000028  0.1523325970446479   F   F   F
  0.5000000000000000  0.3999999999999986  0.1755908343657637   F   F   F
  0.7500000000000000  0.1000000000000014  0.1988490716868867   F   F   F
  0.5086412669595441  0.8164843075540167  0.2225534930445023   T   T   T
  0.7545614275261410  0.5208127659842429  0.2457477137615808   T   T   T
  0.4937854356359308  0.2169144254747276  0.2671003869403279   T   T   T
  0.7470023650950323  0.9169093880162106  0.2997003497024188   T   T   T
  0.5139512380646536  0.6136436797980753  0.3191115236108764   T   T   T
  0.7669353978599099  0.3606336649485911  0.3377938658944484   T   T   T
  0.5176535430137421  0.0947708420063090  0.3579351225144914   T   T   T
  0.0682403681464822  0.7616274593358278  0.4493812832140761   T   T   T
  0.1654678784069920  0.5879337274302608  0.4327660116713329   T   T   T
  0.7787244417679376  0.6581840694224557  0.4068902110464701   T   T   T
  0.7853911772364279  0.6572867431869021  0.4607531604950789   T   T   T
  0.3693017129468231  0.8603044026909309  0.4364055468109166   T   T   T
  0.5549831165764318  0.8454822164862316  0.4410218082078592   T   T   T
  0.1680107762464292  0.6939116120758538  0.4555574326994437   T   T   T
  0.7694516620916683  0.7436980913324691  0.4344091743712827   T   T   T
  0.4679094098502410  0.9334774213432802  0.4340030414586278   T   T   T
 
