Au Pb 
 1.0000000000000000
     8.9456078889999997    0.0000000000000000    0.0000000000000000
     0.0000000000000000    7.3040582560000002    0.0000000000000000
     0.0000000000000000    0.0000000000000000   27.7471236840000017
  30   1
Cartesian
  1.4909300000000001  0.0000000000000000 10.0000000000000000
  0.0000000000000000  2.4346899999999998 10.8607899999999997
  1.4909300000000001  4.8693700000000000 11.7215799999999994
  0.0000000000000000  0.0000000000000000 12.5823699999999992
  1.4909300000000001  2.4346899999999998 13.4431700000000003
  0.0000000000000000  4.8693700000000000 14.3039600000000000
  1.4712499999999999  0.0495500000000000 15.0988000000000007
 -0.0000000000000000  2.4493800000000001 16.0866199999999999
  1.5598799999999999  4.7142600000000003 16.8989699999999985
 -0.0000000000000000  0.0091000000000000 17.6278800000000011
  4.4728000000000003  0.0000000000000000 10.0000000000000000
  2.9818699999999998  2.4346899999999998 10.8607899999999997
  4.4728000000000003  4.8693700000000000 11.7215799999999994
  2.9818699999999998  0.0000000000000000 12.5823699999999992
  4.4728000000000003  2.4346899999999998 13.4431700000000003
  2.9818699999999998  4.8693700000000000 14.3039600000000000
  4.4728000000000003  0.0271900000000000 15.1006900000000002
  2.9992600000000000  2.3579300000000001 16.1240799999999993
  4.4728000000000003  4.7106300000000001 16.9263200000000005
  2.9767100000000002 -0.2063000000000000 17.5827799999999996
  7.4546700000000001  0.0000000000000000 10.0000000000000000
  5.9637399999999996  2.4346899999999998 10.8607899999999997
  7.4546700000000001  4.8693700000000000 11.7215799999999994
  5.9637399999999996  0.0000000000000000 12.5823699999999992
  7.4546700000000001  2.4346899999999998 13.4431700000000003
  5.9637399999999996  4.8693700000000000 14.3039600000000000
  7.4743599999999999  0.0495500000000000 15.0988000000000007
  5.9463499999999998  2.3579300000000001 16.1240799999999993
  7.3857299999999997  4.7142600000000003 16.8989699999999985
  5.9688999999999997 -0.2063000000000000 17.5827799999999996
 -0.0000000000000000 -2.2839000000000000 19.2712399999999988
