Au  O  C                                
   1.00000000000000     
     8.9456078887910113    0.0000000000000000    0.0000000000000000
     0.0000000000000000    8.9456078887910113    0.0000000000000000
     0.0000000000000000    0.0000000000000000   26.3255000000000017
   Au   O    C 
    36     1     1
Selective dynamics
Direct
  0.1666666666666643  0.1666666666666643  0.3798598317220936   F   F   F
  0.0000000000000000  0.0000000000000000  0.4599532772407002   F   F   F
  0.1637800826928612  0.1637800826928612  0.5406268990203014   T   T   T
 -0.0000000000000000  0.0000000000000000  0.6228127570923119   T   T   T
  0.1666666666666643  0.5000000000000000  0.3798598317220936   F   F   F
  0.0000000000000000  0.3333333333333357  0.4599532772407002   F   F   F
  0.1684918915571279  0.5000000000000000  0.5383150618277616   T   T   T
 -0.0000000000000000  0.3395774366175058  0.6171748415436452   T   T   T
  0.1666666666666643  0.8333333333333357  0.3798598317220936   F   F   F
  0.0000000000000000  0.6666666666666643  0.4599532772407002   F   F   F
  0.1637800826928612  0.8362199173071387  0.5406268990203014   T   T   T
 -0.0000000000000000  0.6604225633824942  0.6171748415436452   T   T   T
  0.5000000000000000  0.1666666666666643  0.3798598317220936   F   F   F
  0.3333333333333357  0.0000000000000000  0.4599532772407002   F   F   F
  0.5000000000000000  0.1684918915571279  0.5383150618277616   T   T   T
  0.3395774366175058  0.0000000000000000  0.6171748415436452   T   T   T
  0.5000000000000000  0.5000000000000000  0.3798598317220936   F   F   F
  0.3333333333333357  0.3333333333333357  0.4599532772407002   F   F   F
  0.5000000000000000  0.5000000000000000  0.5392591653264672   T   T   T
  0.3331702897179640  0.3331702897179640  0.6175540305608851   T   T   T
  0.5000000000000000  0.8333333333333357  0.3798598317220936   F   F   F
  0.3333333333333357  0.6666666666666643  0.4599532772407002   F   F   F
  0.5000000000000000  0.8315081084428720  0.5383150618277616   T   T   T
  0.3331702897179640  0.6668297102820359  0.6175540305608851   T   T   T
  0.8333333333333357  0.1666666666666643  0.3798598317220936   F   F   F
  0.6666666666666643  0.0000000000000000  0.4599532772407002   F   F   F
  0.8362199173071387  0.1637800826928612  0.5406268990203014   T   T   T
  0.6604225633824942  0.0000000000000000  0.6171748415436452   T   T   T
  0.8333333333333357  0.5000000000000000  0.3798598317220936   F   F   F
  0.6666666666666643  0.3333333333333357  0.4599532772407002   F   F   F
  0.8315081084428720  0.5000000000000000  0.5383150618277616   T   T   T
  0.6668297102820359  0.3331702897179640  0.6175540305608851   T   T   T
  0.8333333333333357  0.8333333333333357  0.3798598317220936   F   F   F
  0.6666666666666643  0.6666666666666643  0.4599532772407002   F   F   F
  0.8362199173071387  0.8362199173071387  0.5406268990203014   T   T   T
  0.6668297102820359  0.6668297102820359  0.6175540305608851   T   T   T
 -0.0000000000000000  0.0000000000000000  0.7438649429859653   T   T   T
 -0.0000000000000000  0.0000000000000000  0.7003339877824124   T   T   T
 
  0.00000000E+00  0.00000000E+00  0.00000000E+00
  0.00000000E+00  0.00000000E+00  0.00000000E+00
  0.00000000E+00  0.00000000E+00  0.00000000E+00
  0.00000000E+00  0.00000000E+00  0.00000000E+00
  0.00000000E+00  0.00000000E+00  0.00000000E+00
  0.00000000E+00  0.00000000E+00  0.00000000E+00
  0.00000000E+00  0.00000000E+00  0.00000000E+00
  0.00000000E+00  0.00000000E+00  0.00000000E+00
  0.00000000E+00  0.00000000E+00  0.00000000E+00
  0.00000000E+00  0.00000000E+00  0.00000000E+00
  0.00000000E+00  0.00000000E+00  0.00000000E+00
  0.00000000E+00  0.00000000E+00  0.00000000E+00
  0.00000000E+00  0.00000000E+00  0.00000000E+00
  0.00000000E+00  0.00000000E+00  0.00000000E+00
  0.00000000E+00  0.00000000E+00  0.00000000E+00
  0.00000000E+00  0.00000000E+00  0.00000000E+00
  0.00000000E+00  0.00000000E+00  0.00000000E+00
  0.00000000E+00  0.00000000E+00  0.00000000E+00
  0.00000000E+00  0.00000000E+00  0.00000000E+00
  0.00000000E+00  0.00000000E+00  0.00000000E+00
  0.00000000E+00  0.00000000E+00  0.00000000E+00
  0.00000000E+00  0.00000000E+00  0.00000000E+00
  0.00000000E+00  0.00000000E+00  0.00000000E+00
  0.00000000E+00  0.00000000E+00  0.00000000E+00
  0.00000000E+00  0.00000000E+00  0.00000000E+00
  0.00000000E+00  0.00000000E+00  0.00000000E+00
  0.00000000E+00  0.00000000E+00  0.00000000E+00
  0.00000000E+00  0.00000000E+00  0.00000000E+00
  0.00000000E+00  0.00000000E+00  0.00000000E+00
  0.00000000E+00  0.00000000E+00  0.00000000E+00
  0.00000000E+00  0.00000000E+00  0.00000000E+00
  0.00000000E+00  0.00000000E+00  0.00000000E+00
  0.00000000E+00  0.00000000E+00  0.00000000E+00
  0.00000000E+00  0.00000000E+00  0.00000000E+00
  0.00000000E+00  0.00000000E+00  0.00000000E+00
  0.00000000E+00  0.00000000E+00  0.00000000E+00
  0.00000000E+00  0.00000000E+00  0.00000000E+00
  0.00000000E+00  0.00000000E+00  0.00000000E+00
