Au  H  O                                
   1.00000000000000     
     8.4340000000000011    0.0000000000000000    0.0000000000000000
     0.0000000000000000    6.6676624464650276    0.0000000000000000
     0.0000000000000000    0.0000000000000000   28.6679611804045358
   Au   H    O 
    28     4     2
Selective dynamics
Direct
  0.2500000000000000  0.8999999999999986  0.0592996477601631   F   F   F
  0.0000000000000000  0.6000000000000014  0.0825578850812860   F   F   F
  0.2500000000000000  0.2999999999999972  0.1058161224024019   F   F   F
  0.0000000000000000  0.0000000000000000  0.1290743597235249   F   F   F
  0.2500000000000000  0.7000000000000028  0.1523325970446479   F   F   F
  0.0000000000000000  0.3999999999999986  0.1755908343657637   F   F   F
  0.2500000000000000  0.1000000000000014  0.1988490716868867   F   F   F
  0.9922276032200891  0.8082030343077867  0.2252924404265408   T   T   T
  0.2399458861778475  0.5128713815057738  0.2442376834441594   T   T   T
  0.9861016233531328  0.1990121801178053  0.2669278170009438   T   T   T
  0.2403579223724502  0.8849211890750738  0.2944515780395325   T   T   T
  0.9813608719116975  0.5842415424151010  0.3153405238473134   T   T   T
  0.2443185897052278  0.3145657793235063  0.3363640635336846   T   T   T
  0.9876460438215826  0.0163260656109671  0.3517010250799972   T   T   T
  0.7500000000000000  0.8999999999999986  0.0592996477601631   F   F   F
  0.5000000000000000  0.6000000000000014  0.0825578850812860   F   F   F
  0.7500000000000000  0.2999999999999972  0.1058161224024019   F   F   F
  0.5000000000000000  0.0000000000000000  0.1290743597235249   F   F   F
  0.7500000000000000  0.7000000000000028  0.1523325970446479   F   F   F
  0.5000000000000000  0.3999999999999986  0.1755908343657637   F   F   F
  0.7500000000000000  0.1000000000000014  0.1988490716868867   F   F   F
  0.4974073987390934  0.8091555000808784  0.2219047791267743   T   T   T
  0.7367992062917080  0.5104527979583405  0.2454537377201198   T   T   T
  0.5006166585717908  0.2131355996362241  0.2653583795269327   T   T   T
  0.7343488647811033  0.8779433177773532  0.2956621242546129   T   T   T
  0.4927690050093719  0.5957205590011780  0.3203517648862543   T   T   T
  0.7353835239326927  0.3115835215866603  0.3349365381916253   T   T   T
  0.4792732976635084  0.0145561200324159  0.3530877482877606   T   T   T
  0.3696626619877467  0.3785600816492067  0.4279279694486648   T   T   T
  0.3218985221257140  0.4199084316083163  0.4774004032825019   T   T   T
  0.5019192290190057  0.9544106086053088  0.4598237323237324   T   T   T
  0.4267056919027899  0.7615011992412307  0.4433096425045353   T   T   T
  0.4086213808387274  0.4414775587534572  0.4563031717877754   T   T   T
  0.4189988538483764  0.9007020191454327  0.4413420669787054   T   T   T
