Au  H  O                                
   1.00000000000000     
     8.4340000000000011    0.0000000000000000    0.0000000000000000
     0.0000000000000000    6.6676624464650276    0.0000000000000000
     0.0000000000000000    0.0000000000000000   28.6679611804045358
   Au   H    O 
    28    10     5
Selective dynamics
Direct
  0.2500000000000000  0.8999999999999986  0.0592996477601631   F   F   F
  0.0000000000000000  0.6000000000000014  0.0825578850812860   F   F   F
  0.2500000000000000  0.2999999999999972  0.1058161224024019   F   F   F
  0.0000000000000000  0.0000000000000000  0.1290743597235249   F   F   F
  0.2500000000000000  0.7000000000000028  0.1523325970446479   F   F   F
  0.0000000000000000  0.3999999999999986  0.1755908343657637   F   F   F
  0.2500000000000000  0.1000000000000014  0.1988490716868867   F   F   F
  0.9992565169559318  0.8104911369033679  0.2198748846510991   T   T   T
  0.2369088421757696  0.5193629841733939  0.2418679383019190   T   T   T
  0.0021128818223604  0.2169995286999654  0.2668937686923948   T   T   T
  0.2485858751511047  0.8994111552938933  0.2920587729454985   T   T   T
  0.9992235367944352  0.6062626938511206  0.3156477838470140   T   T   T
  0.2517998322551717  0.3264112466816532  0.3363422364715136   T   T   T
  0.0018744197591497  0.0549426781783271  0.3529429886317562   T   T   T
  0.7500000000000000  0.8999999999999986  0.0592996477601631   F   F   F
  0.5000000000000000  0.6000000000000014  0.0825578850812860   F   F   F
  0.7500000000000000  0.2999999999999972  0.1058161224024019   F   F   F
  0.5000000000000000  0.0000000000000000  0.1290743597235249   F   F   F
  0.7500000000000000  0.7000000000000028  0.1523325970446479   F   F   F
  0.5000000000000000  0.3999999999999986  0.1755908343657637   F   F   F
  0.7500000000000000  0.1000000000000014  0.1988490716868867   F   F   F
  0.4995739564382725  0.8055837889429452  0.2219220316413238   T   T   T
  0.7515959113862969  0.4973343829799303  0.2407622771693937   T   T   T
  0.4924832052151786  0.2149860315703254  0.2648029756315227   T   T   T
  0.7534062318371918  0.8824825961833199  0.2953709294666883   T   T   T
  0.4902512095522103  0.6097838385299034  0.3188899192497484   T   T   T
  0.7254552995792907  0.3136892136609643  0.3342497889188327   T   T   T
  0.4919914084497650  0.0212493428546366  0.3554861268453592   T   T   T
  0.9907164545815141  0.3004464984305520  0.5429600812632640   T   T   T
  0.9534178467186377  0.4049868057303446  0.4952635128830903   T   T   T
  0.9753985933454391  0.6729950453444438  0.4489587258951376   T   T   T
  0.0060430300705922  0.4750069041629387  0.4189994339213604   T   T   T
  0.8072487204989399  0.9738682747280188  0.4401297601096206   T   T   T
  0.9485533956386807  0.0511192255881077  0.4699217191806147   T   T   T
  0.4699896712541518  0.0383191594050626  0.4588831555944613   T   T   T
  0.4658582981681744  0.8052195315135235  0.4461158669150330   T   T   T
  0.2523048860625923  0.5504131142551688  0.4473630986262099   T   T   T
  0.3919703198548462  0.5207911909853070  0.4154546104375403   T   T   T
  0.9332764146981183  0.2819751607191135  0.5122766268109169   T   T   T
  0.0305002413133905  0.5451351199560855  0.4480673219234025   T   T   T
  0.9193958923783851  0.9590963748779692  0.4437940117621542   T   T   T
  0.5261671745569699  0.9342097703395620  0.4431279983454007   T   T   T
  0.3680477518180855  0.5507369769358327  0.4480153888876707   T   T   T
 
