Au Pb 
 1.0000000000000000
     5.9637385930000004    0.0000000000000000    0.0000000000000000
     0.0000000000000000    7.3040582560000002    0.0000000000000000
     0.0000000000000000    0.0000000000000000   27.7471236840000017
  20   1
Cartesian
  1.4909300000000001  0.0000000000000000 10.0000000000000000
  0.0000000000000000  2.4346899999999998 10.8607899999999997
  1.4909300000000001  4.8693700000000000 11.7215799999999994
  0.0000000000000000  0.0000000000000000 12.5823699999999992
  1.4909300000000001  2.4346899999999998 13.4431700000000003
  0.0000000000000000  4.8693700000000000 14.3039600000000000
  1.4856100000000001  0.0545000000000000 15.1150300000000009
 -0.0000000000000000  2.4726400000000002 16.0843600000000002
  1.5274099999999999  4.7631300000000003 16.9213300000000011
 -0.0000000000000000  0.0692500000000000 17.6510600000000011
  4.4728000000000003  0.0000000000000000 10.0000000000000000
  2.9818699999999998  2.4346899999999998 10.8607899999999997
  4.4728000000000003  4.8693700000000000 11.7215799999999994
  2.9818699999999998  0.0000000000000000 12.5823699999999992
  4.4728000000000003  2.4346899999999998 13.4431700000000003
  2.9818699999999998  4.8693700000000000 14.3039600000000000
  4.4781300000000002  0.0545000000000000 15.1150300000000009
  2.9818699999999998  2.3793600000000001 16.1348200000000013
  4.4363299999999999  4.7631300000000003 16.9213300000000011
  2.9818699999999998 -0.1510800000000000 17.6456400000000002
 -0.0000000000000000  5.1119700000000003 19.3206300000000013
