Au Pb 
 1.0000000000000000
     5.9637385930000004    0.0000000000000000    0.0000000000000000
     0.0000000000000000    7.3040582560000002    0.0000000000000000
     0.0000000000000000    0.0000000000000000   27.7471236840000017
  20   1
Cartesian
  1.4909300000000001  0.0000000000000000 10.0000000000000000
  0.0000000000000000  2.4346899999999998 10.8607899999999997
  1.4909300000000001  4.8693700000000000 11.7215799999999994
  0.0000000000000000  0.0000000000000000 12.5823699999999992
  1.4909300000000001  2.4346899999999998 13.4431700000000003
  0.0000000000000000  4.8693700000000000 14.3039600000000000
  1.4387099999999999  0.0510700000000000 15.1318000000000001
 -0.0009300000000000  2.4840399999999998 16.0318100000000001
  1.5984700000000001  4.6689200000000000 16.8475399999999986
  5.7357699999999996  0.1783500000000000 17.6575999999999986
  4.4728000000000003  0.0000000000000000 10.0000000000000000
  2.9818699999999998  2.4346899999999998 10.8607899999999997
  4.4728000000000003  4.8693700000000000 11.7215799999999994
  2.9818699999999998  0.0000000000000000 12.5823699999999992
  4.4728000000000003  2.4346899999999998 13.4431700000000003
  2.9818699999999998  4.8693700000000000 14.3039600000000000
  4.4283799999999998  0.0073900000000000 15.1049100000000003
  3.0548500000000001  2.3368799999999998 16.1360799999999998
  4.5253500000000004  4.7980799999999997 17.0481699999999989
  2.7932899999999998  7.1069699999999996 17.6972099999999983
  0.4667600000000000  5.3644299999999996 19.3334599999999988
