Au Pb 
 1.0000000000000000
     8.9456078889999997    0.0000000000000000    0.0000000000000000
     0.0000000000000000    7.3040582560000002    0.0000000000000000
     0.0000000000000000    0.0000000000000000   27.7471236840000017
  30   1
Cartesian
  1.4909300000000001  0.0000000000000000 10.0000000000000000
  0.0000000000000000  2.4346899999999998 10.8607899999999997
  1.4909300000000001  4.8693700000000000 11.7215799999999994
  0.0000000000000000  0.0000000000000000 12.5823699999999992
  1.4909300000000001  2.4346899999999998 13.4431700000000003
  0.0000000000000000  4.8693700000000000 14.3039600000000000
  1.4909300000000001  0.0266300000000000 15.1084200000000006
 -0.0611400000000000  2.4329299999999998 16.0684000000000005
  1.4909300000000001  4.7423700000000002 16.9751699999999985
 -0.0376100000000000 -0.1635000000000000 17.6307900000000011
  4.4728000000000003  0.0000000000000000 10.0000000000000000
  2.9818699999999998  2.4346899999999998 10.8607899999999997
  4.4728000000000003  4.8693700000000000 11.7215799999999994
  2.9818699999999998  0.0000000000000000 12.5823699999999992
  4.4728000000000003  2.4346899999999998 13.4431700000000003
  2.9818699999999998  4.8693700000000000 14.3039600000000000
  4.4658800000000003  0.0302200000000000 15.0914400000000004
  3.0430100000000002  2.4329299999999998 16.0684000000000005
  4.4841699999999998  4.7652799999999997 16.9239400000000018
  3.0194800000000002 -0.1635000000000000 17.6307900000000011
  7.4546700000000001  0.0000000000000000 10.0000000000000000
  5.9637399999999996  2.4346899999999998 10.8607899999999997
  7.4546700000000001  4.8693700000000000 11.7215799999999994
  5.9637399999999996  0.0000000000000000 12.5823699999999992
  7.4546700000000001  2.4346899999999998 13.4431700000000003
  5.9637399999999996  4.8693700000000000 14.3039600000000000
  7.4615999999999998  0.0302200000000000 15.0914400000000004
  5.9637399999999996  2.4094400000000000 16.1134500000000003
  7.4433100000000003  4.7652799999999997 16.9239400000000018
  5.9637399999999996 -0.1611300000000000 17.5660799999999995
  1.4909300000000001  2.1613400000000000 18.6189700000000009
