Au Pb 
 1.0000000000000000
     8.9456078889999997    0.0000000000000000    0.0000000000000000
     0.0000000000000000    7.3040582560000002    0.0000000000000000
     0.0000000000000000    0.0000000000000000   27.7471236840000017
  30   1
Cartesian
  1.4909300000000001  0.0000000000000000 10.0000000000000000
  0.0000000000000000  2.4346899999999998 10.8607899999999997
  1.4909300000000001  4.8693700000000000 11.7215799999999994
  0.0000000000000000  0.0000000000000000 12.5823699999999992
  1.4909300000000001  2.4346899999999998 13.4431700000000003
  0.0000000000000000  4.8693700000000000 14.3039600000000000
  1.4887100000000000  0.0200800000000000 15.1057900000000007
 -0.0591400000000000  2.4228000000000001 16.0680100000000010
  1.4894200000000000  4.7264799999999996 16.9739900000000006
 -0.0364700000000000 -0.1852900000000000 17.6303899999999985
  4.4728000000000003  0.0000000000000000 10.0000000000000000
  2.9818699999999998  2.4346899999999998 10.8607899999999997
  4.4728000000000003  4.8693700000000000 11.7215799999999994
  2.9818699999999998  0.0000000000000000 12.5823699999999992
  4.4728000000000003  2.4346899999999998 13.4431700000000003
  2.9818699999999998  4.8693700000000000 14.3039600000000000
  4.4649099999999997  0.0244200000000000 15.0916800000000002
  3.0387599999999999  2.4199600000000001 16.0660200000000017
  4.4848100000000004  4.7401799999999996 16.9288300000000014
  3.0213100000000002 -0.1880800000000000 17.6306100000000008
  7.4546700000000001  0.0000000000000000 10.0000000000000000
  5.9637399999999996  2.4346899999999998 10.8607899999999997
  7.4546700000000001  4.8693700000000000 11.7215799999999994
  5.9637399999999996  0.0000000000000000 12.5823699999999992
  7.4546700000000001  2.4346899999999998 13.4431700000000003
  5.9637399999999996  4.8693700000000000 14.3039600000000000
  7.4577600000000004  0.0279400000000000 15.0939499999999995
  5.9627400000000002  2.3890600000000002 16.1170399999999994
  7.4417600000000004  4.7429699999999997 16.9233300000000000
  5.9640199999999997 -0.1824700000000000 17.5667499999999990
  1.4923500000000001  2.1357400000000002 18.6133699999999997
