Au Pb 
 1.0000000000000000
     8.9456078889999997    0.0000000000000000    0.0000000000000000
     0.0000000000000000    7.3040582560000002    0.0000000000000000
     0.0000000000000000    0.0000000000000000   27.7471236840000017
  30   1
Cartesian
  1.4909300000000001  0.0000000000000000 10.0000000000000000
  0.0000000000000000  2.4346899999999998 10.8607899999999997
  1.4909300000000001  4.8693700000000000 11.7215799999999994
  0.0000000000000000  0.0000000000000000 12.5823699999999992
  1.4909300000000001  2.4346899999999998 13.4431700000000003
  0.0000000000000000  4.8693700000000000 14.3039600000000000
  1.4909300000000001  0.0670800000000000 15.1049500000000005
 -0.0347700000000000  2.4215200000000001 16.0982799999999990
  1.4909300000000001  4.7158899999999999 16.8496699999999997
 -0.0518100000000000 -0.0733900000000000 17.6328199999999988
  4.4728000000000003  0.0000000000000000 10.0000000000000000
  2.9818699999999998  2.4346899999999998 10.8607899999999997
  4.4728000000000003  4.8693700000000000 11.7215799999999994
  2.9818699999999998  0.0000000000000000 12.5823699999999992
  4.4728000000000003  2.4346899999999998 13.4431700000000003
  2.9818699999999998  4.8693700000000000 14.3039600000000000
  4.4683200000000003  0.0557700000000000 15.0951799999999992
  3.0166400000000002  2.4215200000000001 16.0982799999999990
  4.4830699999999997  4.7878499999999997 16.9511900000000004
  3.0336799999999999 -0.0733900000000000 17.6328199999999988
  7.4546700000000001  0.0000000000000000 10.0000000000000000
  5.9637399999999996  2.4346899999999998 10.8607899999999997
  7.4546700000000001  4.8693700000000000 11.7215799999999994
  5.9637399999999996  0.0000000000000000 12.5823699999999992
  7.4546700000000001  2.4346899999999998 13.4431700000000003
  5.9637399999999996  4.8693700000000000 14.3039600000000000
  7.4591500000000002  0.0557700000000000 15.0951799999999992
  5.9637399999999996  2.4552600000000000 16.1295299999999990
  7.4444100000000004  4.7878499999999997 16.9511900000000004
  5.9637399999999996 -0.1070800000000000 17.5617200000000011
  1.4909300000000001  5.7036199999999999 19.4945500000000003
