Au Pb 
 1.0000000000000000
     2.9818692960000002    0.0000000000000000    0.0000000000000000
     0.0000000000000000    7.3040582560000002    0.0000000000000000
     0.0000000000000000    0.0000000000000000   27.7471236840000017
  10   1
Cartesian
  1.4909300000000001  0.0000000000000000 10.0000000000000000
  0.0000000000000000  2.4346899999999998 10.8607899999999997
  1.4909300000000001  4.8693700000000000 11.7215799999999994
  0.0000000000000000  0.0000000000000000 12.5823699999999992
  1.4909300000000001  2.4346899999999998 13.4431700000000003
  0.0000000000000000  4.8693700000000000 14.3039600000000000
  1.4909300000000001 -0.0043200000000000 15.1192899999999995
  0.0000000000000000  2.4450799999999999 16.0145000000000017
  1.4909300000000001  4.8114600000000003 16.9780799999999985
  0.0000000000000000 -0.1339500000000000 17.6944400000000002
  1.4909300000000001  2.3181200000000000 18.7948999999999984
