Au Pb 
 1.0000000000000000
     8.9456078889999997    0.0000000000000000    0.0000000000000000
     0.0000000000000000    7.3040582560000002    0.0000000000000000
     0.0000000000000000    0.0000000000000000   27.7471236840000017
  30   1
Cartesian
  1.4909300000000001  0.0000000000000000 10.0000000000000000
  0.0000000000000000  2.4346899999999998 10.8607899999999997
  1.4909300000000001  4.8693700000000000 11.7215799999999994
  0.0000000000000000  0.0000000000000000 12.5823699999999992
  1.4909300000000001  2.4346899999999998 13.4431700000000003
  0.0000000000000000  4.8693700000000000 14.3039600000000000
  1.4723700000000000  0.0718600000000000 15.1032200000000003
 -0.0000000000000000  2.4825200000000001 16.1010999999999989
  1.5658900000000000  4.7714800000000004 16.8950099999999992
 -0.0000000000000000  0.0335700000000000 17.6355800000000009
  4.4728000000000003  0.0000000000000000 10.0000000000000000
  2.9818699999999998  2.4346899999999998 10.8607899999999997
  4.4728000000000003  4.8693700000000000 11.7215799999999994
  2.9818699999999998  0.0000000000000000 12.5823699999999992
  4.4728000000000003  2.4346899999999998 13.4431700000000003
  2.9818699999999998  4.8693700000000000 14.3039600000000000
  4.4728000000000003  0.0429200000000000 15.0976400000000002
  3.0028600000000001  2.4076200000000001 16.1201900000000009
  4.4728000000000003  4.7692600000000001 16.9339499999999994
  2.9872000000000001 -0.1367200000000000 17.5876100000000015
  7.4546700000000001  0.0000000000000000 10.0000000000000000
  5.9637399999999996  2.4346899999999998 10.8607899999999997
  7.4546700000000001  4.8693700000000000 11.7215799999999994
  5.9637399999999996  0.0000000000000000 12.5823699999999992
  7.4546700000000001  2.4346899999999998 13.4431700000000003
  5.9637399999999996  4.8693700000000000 14.3039600000000000
  7.4732300000000000  0.0718600000000000 15.1032200000000003
  5.9427399999999997  2.4076200000000001 16.1201900000000009
  7.3797100000000002  4.7714800000000004 16.8950099999999992
  5.9584000000000001 -0.1367200000000000 17.5876100000000015
 -0.0000000000000000  5.0233699999999999 19.2667999999999999
