Au Pb 
 1.0000000000000000
     5.9637385930000004    0.0000000000000000    0.0000000000000000
     0.0000000000000000    7.3040582560000002    0.0000000000000000
     0.0000000000000000    0.0000000000000000   27.7471236840000017
  20   1
Cartesian
  1.4909300000000001  0.0000000000000000 10.0000000000000000
  0.0000000000000000  2.4346899999999998 10.8607899999999997
  1.4909300000000001  4.8693700000000000 11.7215799999999994
  0.0000000000000000  0.0000000000000000 12.5823699999999992
  1.4909300000000001  2.4346899999999998 13.4431700000000003
  0.0000000000000000  4.8693700000000000 14.3039600000000000
  1.4925700000000000  7.2808599999999997 15.1118100000000002
 -0.0000000000000000  2.3748399999999998 15.9118700000000004
  1.4904200000000001  4.6336300000000001 17.0590599999999988
 -0.0000000000000000  7.1099699999999997 17.6791499999999999
  4.4728000000000003  0.0000000000000000 10.0000000000000000
  2.9818699999999998  2.4346899999999998 10.8607899999999997
  4.4728000000000003  4.8693700000000000 11.7215799999999994
  2.9818699999999998  0.0000000000000000 12.5823699999999992
  4.4728000000000003  2.4346899999999998 13.4431700000000003
  2.9818699999999998  4.8693700000000000 14.3039600000000000
  4.4711699999999999  7.2808599999999997 15.1118100000000002
  2.9818699999999998  2.3189799999999998 16.2063500000000005
  4.4733200000000002  4.6336300000000001 17.0590599999999988
  2.9818699999999998  7.0215500000000004 17.5996799999999993
 -0.0000000000000000  2.5543499999999999 18.7395700000000005
