Au Pb 
 1.0000000000000000
     8.9456078889999997    0.0000000000000000    0.0000000000000000
     0.0000000000000000    7.3040582560000002    0.0000000000000000
     0.0000000000000000    0.0000000000000000   27.7471236840000017
  30   1
Cartesian
  1.4909300000000001  0.0000000000000000 10.0000000000000000
  0.0000000000000000  2.4346899999999998 10.8607899999999997
  1.4909300000000001  4.8693700000000000 11.7215799999999994
  0.0000000000000000  0.0000000000000000 12.5823699999999992
  1.4909300000000001  2.4346899999999998 13.4431700000000003
  0.0000000000000000  4.8693700000000000 14.3039600000000000
  1.4909300000000001  0.0488900000000000 15.1084800000000001
 -0.0422600000000000  2.3811499999999999 16.0905099999999983
  1.4909300000000001  4.6590299999999996 16.8384900000000002
 -0.0578600000000000 -0.1288500000000000 17.6213799999999985
  4.4728000000000003  0.0000000000000000 10.0000000000000000
  2.9818699999999998  2.4346899999999998 10.8607899999999997
  4.4728000000000003  4.8693700000000000 11.7215799999999994
  2.9818699999999998  0.0000000000000000 12.5823699999999992
  4.4728000000000003  2.4346899999999998 13.4431700000000003
  2.9818699999999998  4.8693700000000000 14.3039600000000000
  4.4740700000000002  0.0340300000000000 15.0884499999999999
  3.0241300000000000  2.3811499999999999 16.0905099999999983
  4.4828099999999997  4.7406899999999998 16.9572199999999995
  3.0397300000000000 -0.1288500000000000 17.6213799999999985
  7.4546700000000001  0.0000000000000000 10.0000000000000000
  5.9637399999999996  2.4346899999999998 10.8607899999999997
  7.4546700000000001  4.8693700000000000 11.7215799999999994
  5.9637399999999996  0.0000000000000000 12.5823699999999992
  7.4546700000000001  2.4346899999999998 13.4431700000000003
  5.9637399999999996  4.8693700000000000 14.3039600000000000
  7.4534099999999999  0.0340300000000000 15.0884499999999999
  5.9637399999999996  2.4201100000000002 16.1227100000000014
  7.4446700000000003  4.7406899999999998 16.9572199999999995
  5.9637399999999996 -0.1534000000000000 17.5559399999999997
  1.4909300000000001  5.6450100000000001 19.4746500000000005
