Au Pb 
 1.0000000000000000
     5.9637385930000004    0.0000000000000000    0.0000000000000000
     0.0000000000000000    7.3040582560000002    0.0000000000000000
     0.0000000000000000    0.0000000000000000   27.7471236840000017
  20   1
Cartesian
  1.4909300000000001  0.0000000000000000 10.0000000000000000
  0.0000000000000000  2.4346899999999998 10.8607899999999997
  1.4909300000000001  4.8693700000000000 11.7215799999999994
  0.0000000000000000  0.0000000000000000 12.5823699999999992
  1.4909300000000001  2.4346899999999998 13.4431700000000003
  0.0000000000000000  4.8693700000000000 14.3039600000000000
  1.4909300000000001 -0.0193400000000000 15.1078399999999995
 -0.0249100000000000  2.3657699999999999 16.0495400000000004
  1.4909300000000001  4.6656800000000000 17.0192900000000016
 -0.0312700000000000 -0.2530500000000000 17.6574500000000008
  4.4728000000000003  0.0000000000000000 10.0000000000000000
  2.9818699999999998  2.4346899999999998 10.8607899999999997
  4.4728000000000003  4.8693700000000000 11.7215799999999994
  2.9818699999999998  0.0000000000000000 12.5823699999999992
  4.4728000000000003  2.4346899999999998 13.4431700000000003
  2.9818699999999998  4.8693700000000000 14.3039600000000000
  4.4728000000000003 -0.0097800000000000 15.1101700000000001
  3.0067800000000000  2.3657699999999999 16.0495400000000004
  4.4728000000000003  4.6895600000000002 16.9209199999999989
  3.0131399999999999 -0.2530500000000000 17.6574500000000008
  1.4909300000000001  2.0677500000000002 18.6253899999999994
