Au Pb 
 1.0000000000000000
     2.9818692960000002    0.0000000000000000    0.0000000000000000
     0.0000000000000000    7.3040582560000002    0.0000000000000000
     0.0000000000000000    0.0000000000000000   27.7471236840000017
  10   1
Cartesian
  1.4909300000000001  0.0000000000000000 10.0000000000000000
  0.0000000000000000  2.4346899999999998 10.8607899999999997
  1.4909300000000001  4.8693700000000000 11.7215799999999994
  0.0000000000000000  0.0000000000000000 12.5823699999999992
  1.4909300000000001  2.4346899999999998 13.4431700000000003
  0.0000000000000000  4.8693700000000000 14.3039600000000000
  1.4909300000000001 -0.0216100000000000 15.1309900000000006
  0.0000000000000000  2.4180400000000000 16.0162000000000013
  1.4909300000000001  4.7728999999999999 16.9893099999999997
  0.0000000000000000 -0.1685300000000000 17.7095799999999990
  1.4909300000000001  2.2884699999999998 18.8106599999999986
