Au  H  O                                
   1.00000000000000     
     8.4340000000000011    0.0000000000000000    0.0000000000000000
     0.0000000000000000    6.6676624464650276    0.0000000000000000
     0.0000000000000000    0.0000000000000000   28.6679611804045358
   Au   H    O 
    28    12     6
Selective dynamics
Direct
  0.2500000000000000  0.8999999999999986  0.0592996477601631   F   F   F
  0.0000000000000000  0.6000000000000014  0.0825578850812860   F   F   F
  0.2500000000000000  0.2999999999999972  0.1058161224024019   F   F   F
  0.0000000000000000  0.0000000000000000  0.1290743597235249   F   F   F
  0.2500000000000000  0.7000000000000028  0.1523325970446479   F   F   F
  0.0000000000000000  0.3999999999999986  0.1755908343657637   F   F   F
  0.2500000000000000  0.1000000000000014  0.1988490716868867   F   F   F
  0.0052819831759730  0.7944860907683229  0.2201781429068577   T   T   T
  0.2621042644374124  0.4970796542545260  0.2460503576897925   T   T   T
  0.9916549479030276  0.1998460249177925  0.2646358043390601   T   T   T
  0.2555756601467704  0.8834485511345173  0.2919750681511381   T   T   T
  0.0031732516372059  0.5909005655151804  0.3119473082189804   T   T   T
  0.2544053198888414  0.3064548687532469  0.3351255023119558   T   T   T
  0.0105574054511529  0.0101861294627950  0.3536144139291968   T   T   T
  0.7500000000000000  0.8999999999999986  0.0592996477601631   F   F   F
  0.5000000000000000  0.6000000000000014  0.0825578850812860   F   F   F
  0.7500000000000000  0.2999999999999972  0.1058161224024019   F   F   F
  0.5000000000000000  0.0000000000000000  0.1290743597235249   F   F   F
  0.7500000000000000  0.7000000000000028  0.1523325970446479   F   F   F
  0.5000000000000000  0.3999999999999986  0.1755908343657637   F   F   F
  0.7500000000000000  0.1000000000000014  0.1988490716868867   F   F   F
  0.5037783696497601  0.8075004688873383  0.2203291567020419   T   T   T
  0.7413098315419929  0.5027912852870230  0.2457649713290679   T   T   T
  0.4964168161079873  0.1894849779341735  0.2678555367281944   T   T   T
  0.7608361946102031  0.8945114588807355  0.2961040747454873   T   T   T
  0.5084620483160194  0.6013795585775857  0.3213323997887073   T   T   T
  0.7499438229035030  0.2996808027631102  0.3390084958041428   T   T   T
  0.4993093513916466  0.0048931051645185  0.3561199302438569   T   T   T
  0.9872397846264297  0.0288887524203259  0.4579359508805139   T   T   T
  0.0509480291525523  0.8169126459528789  0.4435843835577903   T   T   T
  0.9001463000063683  0.5316199715906578  0.4641988264495776   T   T   T
  0.9937385585545515  0.4758164126646925  0.4193530094891109   T   T   T
  0.3953644265151518  0.5708572309708178  0.4140334331054870   T   T   T
  0.3014868032710908  0.5057782851586203  0.4560527360584306   T   T   T
  0.6404692385056054  0.9988596000472461  0.4753918419352281   T   T   T
  0.7249549643467288  0.1761201733168861  0.5005351739017614   T   T   T
  0.6076654751649393  0.5479468189263947  0.4824876084280199   T   T   T
  0.7259057749328828  0.6737965604606291  0.5109103723655669   T   T   T
  0.4383846279768021  0.2140508817247295  0.4479343058583424   T   T   T
  0.3192637454698206  0.0346825929451469  0.4450696352641391   T   T   T
  0.0735690935993003  0.9621124949227641  0.4402812472645544   T   T   T
  0.0057405431315445  0.5364580021717426  0.4503765508239299   T   T   T
  0.4094525940180644  0.5383284217329577  0.4465358037403352   T   T   T
  0.7381073499448670  0.0346717553550533  0.4918827292986437   T   T   T
  0.7098016561457715  0.5340520025474184  0.5003650997524313   T   T   T
  0.4321144833617183  0.0704794414256719  0.4434576158899054   T   T   T
 
