Au  H  O                                
   1.00000000000000     
     8.4340000000000011    0.0000000000000000    0.0000000000000000
     0.0000000000000000    6.6676624464650276    0.0000000000000000
     0.0000000000000000    0.0000000000000000   28.6679611804045358
   Au   H    O 
    28     8     4
Selective dynamics
Direct
  0.2500000000000000  0.8999999999999986  0.0592996477601631   F   F   F
  0.0000000000000000  0.6000000000000014  0.0825578850812860   F   F   F
  0.2500000000000000  0.2999999999999972  0.1058161224024019   F   F   F
  0.0000000000000000  0.0000000000000000  0.1290743597235249   F   F   F
  0.2500000000000000  0.7000000000000028  0.1523325970446479   F   F   F
  0.0000000000000000  0.3999999999999986  0.1755908343657637   F   F   F
  0.2500000000000000  0.1000000000000014  0.1988490716868867   F   F   F
  0.0035883716801072  0.8299293911153008  0.2262600335780419   T   T   T
  0.2483425903471684  0.5311524674525636  0.2451077148560623   T   T   T
  0.9842063055952163  0.2366598383273102  0.2677935768813000   T   T   T
  0.2426590554897245  0.9191660669087323  0.2966784604491574   T   T   T
  0.9934350890602239  0.6259383593608052  0.3289307593475560   T   T   T
  0.2322083357539519  0.3474976783971990  0.3330201010528515   T   T   T
  0.9899122469925637  0.0593666180519981  0.3574652960261247   T   T   T
  0.7500000000000000  0.8999999999999986  0.0592996477601631   F   F   F
  0.5000000000000000  0.6000000000000014  0.0825578850812860   F   F   F
  0.7500000000000000  0.2999999999999972  0.1058161224024019   F   F   F
  0.5000000000000000  0.0000000000000000  0.1290743597235249   F   F   F
  0.7500000000000000  0.7000000000000028  0.1523325970446479   F   F   F
  0.5000000000000000  0.3999999999999986  0.1755908343657637   F   F   F
  0.7500000000000000  0.1000000000000014  0.1988490716868867   F   F   F
  0.5125634416314160  0.8193043765800190  0.2218878400585689   T   T   T
  0.7520382752497422  0.5448798730150544  0.2424135920264450   T   T   T
  0.4984263109797264  0.2202770466939868  0.2638180432924966   T   T   T
  0.7433176009153004  0.9105378982163345  0.3027206979388606   T   T   T
  0.4969687143116803  0.6282117526713831  0.3129560953441471   T   T   T
  0.7380640339813163  0.3430743188082698  0.3358656082275632   T   T   T
  0.4779217599787205  0.0870135137812242  0.3573117889901500   T   T   T
  0.8119305637477201  0.8343876108664037  0.4443543974421639   T   T   T
  0.7031520848742131  0.8531845876037369  0.4856041379422872   T   T   T
  0.1425724845430843  0.7257027918925347  0.4631275555430203   T   T   T
  0.1846966056805348  0.7506864840068433  0.4097272058423394   T   T   T
  0.4788447647896819  0.2094981490635115  0.4611874065313227   T   T   T
  0.3849504445724682  0.0067605847577430  0.4561238420014290   T   T   T
  0.4333894358244231  0.5756182592394017  0.4635645060935185   T   T   T
  0.6035611836600535  0.5143284128382460  0.4778632365449224   T   T   T
  0.7950302719592116  0.7764558672371447  0.4750516855914811   T   T   T
  0.2222652277505727  0.7741140894865663  0.4415107399803552   T   T   T
  0.4848381468279845  0.0731089934896771  0.4483725103802577   T   T   T
  0.4908825175535889  0.4743899911661341  0.4813240910653904   T   T   T
 
