 O  C                                   
   1.00000000000000     
    10.0000000000000000    0.0000000000000000    0.0000000000000000
     0.0000000000000000   11.0000000000000000    0.0000000000000000
     0.0000000000000000    0.0000000000000000   12.0000000000000000
   O    C 
     1     1
Direct
  0.5000021071096725  0.5000000000000000  0.5480554988183729
  0.5000000000000000  0.5000000000000000  0.4528808932680503
 
  0.00000000E+00  0.00000000E+00  0.00000000E+00
  0.00000000E+00  0.00000000E+00  0.00000000E+00
