Au Pb 
 1.0000000000000000
     5.9637385930000004    0.0000000000000000    0.0000000000000000
     0.0000000000000000    7.3040582560000002    0.0000000000000000
     0.0000000000000000    0.0000000000000000   27.7471236840000017
  20   1
Cartesian
  1.4909300000000001  0.0000000000000000 10.0000000000000000
  0.0000000000000000  2.4346899999999998 10.8607899999999997
  1.4909300000000001  4.8693700000000000 11.7215799999999994
  0.0000000000000000  0.0000000000000000 12.5823699999999992
  1.4909300000000001  2.4346899999999998 13.4431700000000003
  0.0000000000000000  4.8693700000000000 14.3039600000000000
  1.4909300000000001  0.0336000000000000 15.1138700000000004
 -0.0287100000000000  2.3595199999999998 16.0988499999999988
  1.4909300000000001  4.6452499999999999 16.8476999999999997
 -0.0374000000000000 -0.1462400000000000 17.6462000000000003
  4.4728000000000003  0.0000000000000000 10.0000000000000000
  2.9818699999999998  2.4346899999999998 10.8607899999999997
  4.4728000000000003  4.8693700000000000 11.7215799999999994
  2.9818699999999998  0.0000000000000000 12.5823699999999992
  4.4728000000000003  2.4346899999999998 13.4431700000000003
  2.9818699999999998  4.8693700000000000 14.3039600000000000
  4.4728000000000003  0.0114400000000000 15.1013000000000002
  3.0105800000000000  2.3595199999999998 16.0988499999999988
  4.4728000000000003  4.7033800000000001 17.0038400000000003
  3.0192700000000001 -0.1462400000000000 17.6462000000000003
  1.4909300000000001  5.5950800000000003 19.5006999999999984
