Au Pb 
 1.0000000000000000
     8.9456078889999997    0.0000000000000000    0.0000000000000000
     0.0000000000000000    7.3040582560000002    0.0000000000000000
     0.0000000000000000    0.0000000000000000   27.7471236840000017
  30   1
Cartesian
  1.4909300000000001  0.0000000000000000 10.0000000000000000
  0.0000000000000000  2.4346899999999998 10.8607899999999997
  1.4909300000000001  4.8693700000000000 11.7215799999999994
  0.0000000000000000  0.0000000000000000 12.5823699999999992
  1.4909300000000001  2.4346899999999998 13.4431700000000003
  0.0000000000000000  4.8693700000000000 14.3039600000000000
  1.4909300000000001  0.0270500000000000 15.1034900000000007
 -0.0615000000000000  2.4434900000000002 16.0613300000000017
  1.4909300000000001  4.7627699999999997 16.9542000000000002
 -0.0358400000000000 -0.1454600000000000 17.6322499999999991
  4.4728000000000003  0.0000000000000000 10.0000000000000000
  2.9818699999999998  2.4346899999999998 10.8607899999999997
  4.4728000000000003  4.8693700000000000 11.7215799999999994
  2.9818699999999998  0.0000000000000000 12.5823699999999992
  4.4728000000000003  2.4346899999999998 13.4431700000000003
  2.9818699999999998  4.8693700000000000 14.3039600000000000
  4.4678800000000001  0.0287900000000000 15.0949200000000001
  3.0433699999999999  2.4434900000000002 16.0613300000000017
  4.4828700000000001  4.7709299999999999 16.9298800000000007
  3.0177100000000001 -0.1454600000000000 17.6322499999999991
  7.4546700000000001  0.0000000000000000 10.0000000000000000
  5.9637399999999996  2.4346899999999998 10.8607899999999997
  7.4546700000000001  4.8693700000000000 11.7215799999999994
  5.9637399999999996  0.0000000000000000 12.5823699999999992
  7.4546700000000001  2.4346899999999998 13.4431700000000003
  5.9637399999999996  4.8693700000000000 14.3039600000000000
  7.4595900000000004  0.0287900000000000 15.0949200000000001
  5.9637399999999996  2.4057100000000000 16.1229200000000006
  7.4446000000000003  4.7709299999999999 16.9298800000000007
  5.9637399999999996 -0.1589900000000000 17.5747000000000000
  1.4909300000000001  2.1870099999999999 18.6096299999999992
