Au  H  O  C                             
   1.00000000000000     
     7.2859499414529516    0.0000000000000000    0.0000000000000000
     0.0000000000000000    8.9234298240103520    0.0000000000000000
     0.0000000000000000    0.0000000000000000   30.8692594813161492
   Au   H    O    C 
    27    30    16     1
Selective dynamics
Direct
  0.6802298941760531  0.1824008092382024  0.6057320944674855   T   T   T
  0.6680211856462462  0.4874760813075503  0.6090957079263050   T   T   T
  0.6791055629029417  0.8297425367828557  0.6036948568023709   T   T   T
  0.3432890597133191  0.9830354904971671  0.5819490212636478   T   T   T
  0.3121135662356391  0.3051723469361897  0.5884644496569735   T   T   T
  0.3214945552044298  0.6439052673501772  0.5821207461869256   T   T   T
  0.0067255869256010  0.1397448169140901  0.5630676561185931   T   T   T
  0.0034867937963944  0.4787394683074184  0.5595267900008450   T   T   T
  0.0218274240382256  0.8172422435772303  0.5544456839634695   T   T   T
  0.6666666700000000  0.0000000000000000  0.5278159400000000   F   F   F
  0.6666666700000000  0.3333333300000000  0.5278159400000000   F   F   F
  0.6666666700000000  0.6666666700000000  0.5278159400000000   F   F   F
  0.3333333300000000  0.1666666700000000  0.5000000000000000   F   F   F
  0.3333333300000000  0.5000000000000000  0.5000000000000000   F   F   F
  0.3333333300000000  0.8333333300000000  0.5000000000000000   F   F   F
  0.0000000000000000  0.0000000000000000  0.4721840600000000   F   F   F
  0.0000000000000000  0.3333333300000000  0.4721840600000000   F   F   F
  0.0000000000000000  0.6666666700000000  0.4721840600000000   F   F   F
  0.6666666700000000  0.1666666700000000  0.4443681200000000   F   F   F
  0.6666666700000000  0.5000000000000000  0.4443681200000000   F   F   F
  0.6666666700000000  0.8333333300000000  0.4443681200000000   F   F   F
  0.3333333300000000  0.0000000000000000  0.4165521800000000   F   F   F
  0.3333333300000000  0.3333333300000000  0.4165521800000000   F   F   F
  0.3333333300000000  0.6666666700000000  0.4165521800000000   F   F   F
  0.0000000000000000  0.1666666700000000  0.3887362400000000   F   F   F
  0.0000000000000000  0.5000000000000000  0.3887362400000000   F   F   F
  0.0000000000000000  0.8333333300000000  0.3887362400000000   F   F   F
  0.1279045494982826  0.9396761281283883  0.8925336091195257   T   T   T
  0.9289963409626198  0.1060937863740805  0.7351100666198980   T   T   T
  0.9212613431580354  0.2701521254773340  0.9719217486934422   T   T   T
  0.0809675630947900  0.2798592689638029  0.9395164412326176   T   T   T
  0.3060777468012956  0.9787112439181633  0.8653423672835486   T   T   T
  0.9244465721666106  0.7100422485414130  0.8584605407010351   T   T   T
  0.8435294762292762  0.8559724674821718  0.8770173917734436   T   T   T
  0.9981596557848352  0.9626497287014371  0.7951709415665618   T   T   T
  0.2054919502950353  0.0025971736527508  0.7868604717044243   T   T   T
  0.8797057553623768  0.2584943620211327  0.7131681378948397   T   T   T
  0.3880693992858977  0.7228879313165362  0.8636797376574730   T   T   T
  0.3382697685338920  0.1901622102718841  0.6947656267005845   T   T   T
  0.8219991280892575  0.4552729699233135  0.8579267650696042   T   T   T
  0.7624332296710397  0.4792703494670584  0.8105602172837851   T   T   T
  0.5196479665927213  0.6009682662337462  0.8526792466470855   T   T   T
  0.8015383584954641  0.5244869762867680  0.7176179125724993   T   T   T
  0.9658513924104259  0.5010314096074919  0.6866642523920587   T   T   T
  0.1378914885556057  0.3155922347466639  0.8587819990512758   T   T   T
  0.2026611210865920  0.4658199008752982  0.8747237430367000   T   T   T
  0.5411356513733275  0.2009215137336950  0.7017096431257239   T   T   T
  0.7739898346443582  0.0970801130532927  0.9161258337908994   T   T   T
  0.5807865142166008  0.0552514495393886  0.9257020107850854   T   T   T
  0.2676455116430749  0.3230885408043377  0.7754861783505079   T   T   T
  0.1405961018078799  0.4567593227551389  0.7678426371629234   T   T   T
  0.3268839380688210  0.9529896767581856  0.7229252972331729   T   T   T
  0.2615350628897843  0.8047925034369758  0.7088660369537072   T   T   T
  0.4303789610580905  0.5420036197303679  0.7549882840163831   T   T   T
  0.5238995256504119  0.6949956932540960  0.7471379338039804   T   T   T
  0.6193809565275633  0.1174434635973428  0.8263920646437073   T   T   T
  0.5348689270423922  0.1310156936584387  0.7814758458764618   T   T   T
  0.8352723651931074  0.1574288246921937  0.7172219242584172   T   T   T
  0.0272019885368292  0.2121184781719792  0.9613389398082277   T   T   T
  0.2604917805857613  0.9455756719138951  0.8930237386225420   T   T   T
  0.9511170877273492  0.8165050950286490  0.8625329950521171   T   T   T
  0.0873508130763958  0.9848144563109853  0.7729341264057286   T   T   T
  0.4322084348241367  0.1736933080787260  0.7165191152586914   T   T   T
  0.7402724360749254  0.5116772610393937  0.8395953495298432   T   T   T
  0.3884440481224475  0.6216348649204924  0.8530181492698556   T   T   T
  0.8940617729755299  0.4510172011867009  0.7082745411237807   T   T   T
  0.1075582834806687  0.3917798889083686  0.8799421414336978   T   T   T
  0.6680493555551832  0.0548286352479325  0.9018511211779988   T   T   T
  0.1971653209080407  0.3987030942062340  0.7913636033630412   T   T   T
  0.3711008269423670  0.8666944561428592  0.7073462504748957   T   T   T
  0.5463882347472695  0.5895051627813952  0.7486805479290158   T   T   T
  0.5002642733463807  0.1267709294333861  0.8117956260496642   T   T   T
  0.7977571866944454  0.8330811645653334  0.6992344580814086   T   T   T
  0.7425651638405802  0.8420098915598397  0.6646216905280001   T   T   T
 
  0.94086210E-03  0.11641272E-02  0.13190308E-03
 -0.44327484E-03  0.99659130E-03 -0.20056787E-03
 -0.27754659E-03  0.42847163E-03 -0.38486024E-03
  0.38912232E-03  0.16475000E-02  0.30312363E-03
  0.11366177E-02 -0.15343827E-03 -0.38174799E-03
 -0.86540698E-03 -0.46959425E-03 -0.86873701E-03
 -0.15544490E-04  0.85833241E-04  0.14491540E-02
 -0.17754846E-03 -0.82003441E-03  0.56393462E-03
 -0.12845263E-02  0.13781728E-02 -0.76370935E-03
  0.00000000E+00  0.00000000E+00  0.00000000E+00
  0.00000000E+00  0.00000000E+00  0.00000000E+00
  0.00000000E+00  0.00000000E+00  0.00000000E+00
  0.00000000E+00  0.00000000E+00  0.00000000E+00
  0.00000000E+00  0.00000000E+00  0.00000000E+00
  0.00000000E+00  0.00000000E+00  0.00000000E+00
  0.00000000E+00  0.00000000E+00  0.00000000E+00
  0.00000000E+00  0.00000000E+00  0.00000000E+00
  0.00000000E+00  0.00000000E+00  0.00000000E+00
  0.00000000E+00  0.00000000E+00  0.00000000E+00
  0.00000000E+00  0.00000000E+00  0.00000000E+00
  0.00000000E+00  0.00000000E+00  0.00000000E+00
  0.00000000E+00  0.00000000E+00  0.00000000E+00
  0.00000000E+00  0.00000000E+00  0.00000000E+00
  0.00000000E+00  0.00000000E+00  0.00000000E+00
  0.00000000E+00  0.00000000E+00  0.00000000E+00
  0.00000000E+00  0.00000000E+00  0.00000000E+00
  0.00000000E+00  0.00000000E+00  0.00000000E+00
 -0.70312021E-03 -0.63166933E-02 -0.35583776E-02
  0.21919309E-02  0.81942352E-02  0.12975445E-02
 -0.95688657E-02 -0.17261135E-01  0.92369825E-02
  0.31440379E-02 -0.18868860E-02  0.43261029E-02
 -0.11984768E-02 -0.13289564E-01 -0.33193533E-02
  0.13655116E-02 -0.33785762E-02 -0.20123358E-01
 -0.11365792E-02  0.45536326E-02 -0.68802274E-02
 -0.89734399E-02  0.21190833E-02 -0.78567263E-02
 -0.29950071E-02  0.40900960E-02  0.24538651E-01
  0.20152835E-01 -0.63569036E-02 -0.76314892E-03
 -0.16135725E-01  0.80060031E-02 -0.74113701E-02
  0.48395152E-02 -0.68110725E-02 -0.13415137E-01
 -0.12405131E-01  0.40030656E-02 -0.55662683E-03
 -0.23072142E-01 -0.45354398E-02 -0.83543383E-02
  0.12800918E-01  0.10903814E-01 -0.21616523E-02
  0.12296964E-01 -0.14306392E-02 -0.85239431E-02
 -0.43860055E-02 -0.62973659E-02 -0.45715791E-02
 -0.40730696E-02 -0.20289532E-02  0.57634816E-02
  0.98624434E-02 -0.93560432E-02 -0.21275516E-01
 -0.39035560E-02 -0.54225574E-02 -0.10598915E-01
  0.36929005E-02  0.22808554E-02 -0.22369603E-01
 -0.60507254E-02 -0.53421076E-02 -0.62384729E-02
  0.13602079E-02 -0.84222345E-02  0.13751867E-01
  0.56220967E-02  0.13485055E-01  0.58377008E-02
 -0.12065676E-02  0.18858243E-02  0.10447726E-01
 -0.11267801E-02 -0.19943887E-02 -0.12960110E-01
 -0.71952081E-02  0.17804980E-01 -0.29182074E-03
 -0.14089539E-01  0.27944676E-02  0.15228804E-03
 -0.77918723E-02 -0.13030489E-01  0.66065090E-02
  0.15603393E-01  0.14130508E-02 -0.18771186E-02
 -0.15612389E-02  0.92479708E-02 -0.11098686E-02
  0.44186689E-02  0.39675220E-02  0.40941167E-02
  0.33670596E-03 -0.41322562E-02  0.43704235E-02
 -0.27292901E-02 -0.26839834E-02  0.11713356E-01
  0.33363953E-02 -0.28756606E-02  0.26271147E-02
  0.33374948E-02  0.10458945E-02  0.14310258E-02
  0.13349608E-02 -0.21874747E-02 -0.25963339E-02
  0.11322034E-02  0.38329715E-02 -0.84520762E-03
  0.26313359E-02 -0.12532540E-01 -0.50624534E-02
 -0.15156795E-02  0.15499529E-02  0.12081143E-02
  0.48065191E-03  0.30242776E-02 -0.60278848E-02
 -0.29357536E-02 -0.63699473E-02 -0.62676524E-02
 -0.19096534E-02 -0.36928413E-02  0.11955321E-01
 -0.77278217E-03  0.39419666E-03  0.37304400E-02
  0.13484850E-02  0.56692301E-02 -0.65378049E-03
 -0.20769938E-02 -0.22074140E-03 -0.52449797E-03
 -0.66239060E-03  0.10686901E-02 -0.68509473E-03
 
           1
   1.00000000000000     
  0.11977645E+01 -0.14575157E-01 -0.25229225E-17  0.00000000E+00
  0.68035903E+00  0.18253127E+00  0.60573637E+00
  0.66796035E+00  0.48758776E+00  0.60908921E+00
  0.67906747E+00  0.82979055E+00  0.60368239E+00
  0.34334247E+00  0.98322012E+00  0.58195884E+00
  0.31226957E+00  0.30515515E+00  0.58845208E+00
  0.32137578E+00  0.64385264E+00  0.58209260E+00
  0.67234534E-02  0.13975444E+00  0.56311460E+00
  0.34624252E-02  0.47864757E+00  0.55954506E+00
  0.21651122E-01  0.81739669E+00  0.55442094E+00
  0.66666667E+00  0.00000000E+00  0.52781594E+00
  0.66666667E+00  0.33333333E+00  0.52781594E+00
  0.66666667E+00  0.66666667E+00  0.52781594E+00
  0.33333333E+00  0.16666667E+00  0.50000000E+00
  0.33333333E+00  0.50000000E+00  0.50000000E+00
  0.33333333E+00  0.83333333E+00  0.50000000E+00
  0.00000000E+00  0.00000000E+00  0.47218406E+00
  0.00000000E+00  0.33333333E+00  0.47218406E+00
  0.00000000E+00  0.66666667E+00  0.47218406E+00
  0.66666667E+00  0.16666667E+00  0.44436812E+00
  0.66666667E+00  0.50000000E+00  0.44436812E+00
  0.66666667E+00  0.83333333E+00  0.44436812E+00
  0.33333333E+00  0.00000000E+00  0.41655218E+00
  0.33333333E+00  0.33333333E+00  0.41655218E+00
  0.33333333E+00  0.66666667E+00  0.41655218E+00
  0.00000000E+00  0.16666667E+00  0.38873624E+00
  0.00000000E+00  0.50000000E+00  0.38873624E+00
  0.00000000E+00  0.83333333E+00  0.38873624E+00
  0.12780805E+00  0.93896825E+00  0.89241834E+00
  0.92929718E+00  0.10701207E+00  0.73515210E+00
  0.91994801E+00  0.26821776E+00  0.97222098E+00
  0.81399084E-01  0.27964782E+00  0.93965658E+00
  0.30591326E+00  0.97722196E+00  0.86523484E+00
  0.92463399E+00  0.70966363E+00  0.85780865E+00
  0.84337348E+00  0.85648277E+00  0.87679451E+00
  0.99692805E+00  0.96288720E+00  0.79491643E+00
  0.20508088E+00  0.30555284E-02  0.78765539E+00
  0.88247174E+00  0.25778198E+00  0.71314342E+00
  0.38585476E+00  0.72378512E+00  0.86343965E+00
  0.33893399E+00  0.18939893E+00  0.69433105E+00
  0.82029652E+00  0.45572157E+00  0.85790873E+00
  0.75926657E+00  0.47876209E+00  0.81028958E+00
  0.52140490E+00  0.60219020E+00  0.85260922E+00
  0.80322612E+00  0.52432665E+00  0.71734178E+00
  0.96524941E+00  0.50032570E+00  0.68651616E+00
  0.13733246E+00  0.31536486E+00  0.85896871E+00
  0.20401475E+00  0.46477142E+00  0.87403453E+00
  0.54059989E+00  0.20031384E+00  0.70136629E+00
  0.77449669E+00  0.97335716E-01  0.91540118E+00
  0.57995605E+00  0.54652789E-01  0.92549992E+00
  0.26783220E+00  0.32214471E+00  0.77593167E+00
  0.14136774E+00  0.45827052E+00  0.76803175E+00
  0.32671834E+00  0.95320101E+00  0.72326375E+00
  0.26138041E+00  0.80456900E+00  0.70844620E+00
  0.42939142E+00  0.54399893E+00  0.75497883E+00
  0.52196573E+00  0.69530885E+00  0.74714287E+00
  0.61831152E+00  0.11598321E+00  0.82660608E+00
  0.53701050E+00  0.13117405E+00  0.78141504E+00
  0.83505808E+00  0.15846519E+00  0.71718597E+00
  0.27808453E-01  0.21256310E+00  0.96147157E+00
  0.26053799E+00  0.94511259E+00  0.89316532E+00
  0.95074249E+00  0.81620432E+00  0.86291245E+00
  0.87808735E-01  0.98449220E+00  0.77301923E+00
  0.43266651E+00  0.17381052E+00  0.71656547E+00
  0.74045566E+00  0.51143212E+00  0.83951124E+00
  0.38859944E+00  0.62206441E+00  0.85299077E+00
  0.89442293E+00  0.44961275E+00  0.70811054E+00
  0.10735026E+00  0.39195358E+00  0.87998128E+00
  0.66811533E+00  0.55167550E-01  0.90165585E+00
  0.19676239E+00  0.39798925E+00  0.79116056E+00
  0.37083873E+00  0.86628062E+00  0.70773354E+00
  0.54628217E+00  0.58954934E+00  0.74880139E+00
  0.50044935E+00  0.12740625E+00  0.81177445E+00
  0.79747212E+00  0.83305643E+00  0.69921747E+00
  0.74247425E+00  0.84212965E+00  0.66459950E+00
  0.13006353E-03  0.13091933E-03  0.39547510E-05
 -0.59246811E-04  0.10991648E-03 -0.63446860E-05
 -0.37499062E-04  0.48309281E-04 -0.12172888E-04
  0.53531790E-04  0.18327993E-03  0.95693196E-05
  0.15354941E-03 -0.18092832E-04 -0.12362965E-04
 -0.11963560E-03 -0.52280770E-04 -0.28272987E-04
 -0.24079463E-05  0.94116738E-05  0.46993977E-04
 -0.23892747E-04 -0.91515528E-04  0.18251912E-04
 -0.17392620E-03  0.15353563E-03 -0.24738280E-04
  0.00000000E+00  0.00000000E+00  0.00000000E+00
  0.00000000E+00  0.00000000E+00  0.00000000E+00
  0.00000000E+00  0.00000000E+00  0.00000000E+00
  0.00000000E+00  0.00000000E+00  0.00000000E+00
  0.00000000E+00  0.00000000E+00  0.00000000E+00
  0.00000000E+00  0.00000000E+00  0.00000000E+00
  0.00000000E+00  0.00000000E+00  0.00000000E+00
  0.00000000E+00  0.00000000E+00  0.00000000E+00
  0.00000000E+00  0.00000000E+00  0.00000000E+00
  0.00000000E+00  0.00000000E+00  0.00000000E+00
  0.00000000E+00  0.00000000E+00  0.00000000E+00
  0.00000000E+00  0.00000000E+00  0.00000000E+00
  0.00000000E+00  0.00000000E+00  0.00000000E+00
  0.00000000E+00  0.00000000E+00  0.00000000E+00
  0.00000000E+00  0.00000000E+00  0.00000000E+00
  0.00000000E+00  0.00000000E+00  0.00000000E+00
  0.00000000E+00  0.00000000E+00  0.00000000E+00
  0.00000000E+00  0.00000000E+00  0.00000000E+00
 -0.20163925E-03 -0.64375583E-03 -0.80586313E-04
  0.48437486E-03  0.81529240E-03  0.79863097E-04
 -0.15478537E-02 -0.18108330E-02  0.30733650E-03
  0.48260382E-03 -0.11013921E-03  0.12282962E-03
 -0.69019127E-04 -0.15384653E-02 -0.99926427E-04
  0.16522893E-03 -0.47548135E-03 -0.64597683E-03
 -0.74905474E-04  0.50838920E-03 -0.22102011E-03
 -0.13054591E-02  0.30783805E-03 -0.28248988E-03
 -0.23994562E-03  0.46634146E-03  0.77469481E-03
  0.27547472E-02 -0.77703760E-03 -0.29752091E-04
 -0.20091426E-02  0.78248291E-03 -0.26600229E-03
  0.68927040E-03 -0.74686683E-03 -0.43947146E-03
 -0.18254113E-02  0.51158432E-03 -0.25778521E-04
 -0.31479103E-02 -0.46611234E-03 -0.22939324E-03
  0.17750773E-02  0.13767587E-02 -0.49767184E-04
  0.16543212E-02 -0.23332061E-04 -0.27188323E-03
 -0.67461899E-03 -0.74839699E-03 -0.11236247E-03
 -0.53289593E-03 -0.25258719E-03  0.18598916E-03
  0.12873562E-02 -0.11414525E-02 -0.68199765E-03
 -0.95733858E-03 -0.62893581E-03 -0.32256443E-03
  0.33175217E-03  0.21186369E-03 -0.71738861E-03
 -0.71230098E-03 -0.53188359E-03 -0.16475367E-03
  0.23826986E-03 -0.98511651E-03  0.41543552E-03
  0.78622626E-03  0.16069642E-02  0.14278617E-03
 -0.30459419E-03  0.88390325E-04  0.34276915E-03
 -0.22326656E-03 -0.16508227E-03 -0.39999404E-03
 -0.99974627E-03  0.19665025E-02 -0.33925469E-04
 -0.18187608E-02  0.16075873E-03  0.88957342E-05
 -0.80266241E-03 -0.14628184E-02  0.20137099E-03
  0.21822961E-02  0.13908829E-03 -0.54344582E-04
 -0.23334583E-03  0.10607313E-02 -0.40062692E-04
  0.63303094E-03  0.41524935E-03  0.13437650E-03
  0.14279662E-04 -0.46729494E-03  0.13484132E-03
 -0.34960989E-03 -0.29022623E-03  0.37936145E-03
  0.44297281E-03 -0.32750780E-03  0.87682064E-04
  0.51216522E-03  0.10811693E-03  0.43946260E-04
  0.18200807E-03 -0.25634566E-03 -0.88419420E-04
  0.14402085E-03  0.41941100E-03 -0.28509978E-04
  0.36949843E-03 -0.14248799E-02 -0.16770952E-03
 -0.20030289E-03  0.18406932E-03  0.35879407E-04
  0.63252242E-04  0.33623244E-03 -0.19870468E-03
 -0.40661042E-03 -0.70816567E-03 -0.18844950E-03
 -0.23383525E-03 -0.39210548E-03  0.38375937E-03
 -0.12997012E-03  0.66704402E-04  0.12286694E-03
  0.15384943E-03  0.63902605E-03 -0.20414942E-04
 -0.29583613E-03 -0.21430008E-04 -0.22602176E-04
 -0.88956846E-04  0.11858737E-03 -0.27091958E-04
  0.00000000E+00  0.00000000E+00  0.00000000E+00
  0.00000000E+00  0.00000000E+00  0.00000000E+00
  0.00000000E+00  0.00000000E+00  0.00000000E+00
  0.00000000E+00  0.00000000E+00  0.00000000E+00
  0.00000000E+00  0.00000000E+00  0.00000000E+00
  0.00000000E+00  0.00000000E+00  0.00000000E+00
  0.00000000E+00  0.00000000E+00  0.00000000E+00
  0.00000000E+00  0.00000000E+00  0.00000000E+00
  0.00000000E+00  0.00000000E+00  0.00000000E+00
  0.00000000E+00  0.00000000E+00  0.00000000E+00
  0.00000000E+00  0.00000000E+00  0.00000000E+00
  0.00000000E+00  0.00000000E+00  0.00000000E+00
  0.00000000E+00  0.00000000E+00  0.00000000E+00
  0.00000000E+00  0.00000000E+00  0.00000000E+00
  0.00000000E+00  0.00000000E+00  0.00000000E+00
  0.00000000E+00  0.00000000E+00  0.00000000E+00
  0.00000000E+00  0.00000000E+00  0.00000000E+00
  0.00000000E+00  0.00000000E+00  0.00000000E+00
  0.00000000E+00  0.00000000E+00  0.00000000E+00
  0.00000000E+00  0.00000000E+00  0.00000000E+00
  0.00000000E+00  0.00000000E+00  0.00000000E+00
  0.00000000E+00  0.00000000E+00  0.00000000E+00
  0.00000000E+00  0.00000000E+00  0.00000000E+00
  0.00000000E+00  0.00000000E+00  0.00000000E+00
  0.00000000E+00  0.00000000E+00  0.00000000E+00
  0.00000000E+00  0.00000000E+00  0.00000000E+00
  0.00000000E+00  0.00000000E+00  0.00000000E+00
  0.00000000E+00  0.00000000E+00  0.00000000E+00
  0.00000000E+00  0.00000000E+00  0.00000000E+00
  0.00000000E+00  0.00000000E+00  0.00000000E+00
  0.00000000E+00  0.00000000E+00  0.00000000E+00
  0.00000000E+00  0.00000000E+00  0.00000000E+00
  0.00000000E+00  0.00000000E+00  0.00000000E+00
  0.00000000E+00  0.00000000E+00  0.00000000E+00
  0.00000000E+00  0.00000000E+00  0.00000000E+00
  0.00000000E+00  0.00000000E+00  0.00000000E+00
  0.00000000E+00  0.00000000E+00  0.00000000E+00
  0.00000000E+00  0.00000000E+00  0.00000000E+00
  0.00000000E+00  0.00000000E+00  0.00000000E+00
  0.00000000E+00  0.00000000E+00  0.00000000E+00
  0.00000000E+00  0.00000000E+00  0.00000000E+00
  0.00000000E+00  0.00000000E+00  0.00000000E+00
  0.00000000E+00  0.00000000E+00  0.00000000E+00
  0.00000000E+00  0.00000000E+00  0.00000000E+00
  0.00000000E+00  0.00000000E+00  0.00000000E+00
  0.00000000E+00  0.00000000E+00  0.00000000E+00
  0.00000000E+00  0.00000000E+00  0.00000000E+00
  0.00000000E+00  0.00000000E+00  0.00000000E+00
  0.00000000E+00  0.00000000E+00  0.00000000E+00
  0.00000000E+00  0.00000000E+00  0.00000000E+00
  0.00000000E+00  0.00000000E+00  0.00000000E+00
  0.00000000E+00  0.00000000E+00  0.00000000E+00
  0.00000000E+00  0.00000000E+00  0.00000000E+00
  0.00000000E+00  0.00000000E+00  0.00000000E+00
  0.00000000E+00  0.00000000E+00  0.00000000E+00
  0.00000000E+00  0.00000000E+00  0.00000000E+00
  0.00000000E+00  0.00000000E+00  0.00000000E+00
  0.00000000E+00  0.00000000E+00  0.00000000E+00
  0.00000000E+00  0.00000000E+00  0.00000000E+00
  0.00000000E+00  0.00000000E+00  0.00000000E+00
  0.00000000E+00  0.00000000E+00  0.00000000E+00
  0.00000000E+00  0.00000000E+00  0.00000000E+00
  0.00000000E+00  0.00000000E+00  0.00000000E+00
  0.00000000E+00  0.00000000E+00  0.00000000E+00
  0.00000000E+00  0.00000000E+00  0.00000000E+00
  0.00000000E+00  0.00000000E+00  0.00000000E+00
  0.00000000E+00  0.00000000E+00  0.00000000E+00
  0.00000000E+00  0.00000000E+00  0.00000000E+00
  0.00000000E+00  0.00000000E+00  0.00000000E+00
  0.00000000E+00  0.00000000E+00  0.00000000E+00
  0.00000000E+00  0.00000000E+00  0.00000000E+00
  0.00000000E+00  0.00000000E+00  0.00000000E+00
  0.00000000E+00  0.00000000E+00  0.00000000E+00
  0.00000000E+00  0.00000000E+00  0.00000000E+00
