Au 
 1.0000000000000000
     8.9456078889999997    0.0000000000000000    0.0000000000000000
     0.0000000000000000    7.3040582560000002    0.0000000000000000
     0.0000000000000000    0.0000000000000000   27.7471236840000017
  30
Cartesian
  1.4909300000000001  0.0000000000000000 10.0000000000000000
  0.0000000000000000  2.4346899999999998 10.8607899999999997
  1.4909300000000001  4.8693700000000000 11.7215799999999994
  0.0000000000000000  0.0000000000000000 12.5823699999999992
  1.4909300000000001  2.4346899999999998 13.4431700000000003
  0.0000000000000000  4.8693700000000000 14.3039600000000000
  1.4909300000000001  0.0876300000000000 15.0867199999999997
 -0.0000000000000000  2.4834399999999999 16.1336000000000013
  1.4909300000000001  4.8329800000000001 16.8940300000000008
 -0.0000000000000000 -0.0737200000000000 17.5463099999999983
  4.4728000000000003  0.0000000000000000 10.0000000000000000
  2.9818699999999998  2.4346899999999998 10.8607899999999997
  4.4728000000000003  4.8693700000000000 11.7215799999999994
  2.9818699999999998  0.0000000000000000 12.5823699999999992
  4.4728000000000003  2.4346899999999998 13.4431700000000003
  2.9818699999999998  4.8693700000000000 14.3039600000000000
  4.4728000000000003  0.0876300000000000 15.0867199999999997
  2.9818699999999998  2.4834399999999999 16.1336000000000013
  4.4728000000000003  4.8329800000000001 16.8940300000000008
  2.9818699999999998 -0.0737200000000000 17.5463099999999983
  7.4546700000000001  0.0000000000000000 10.0000000000000000
  5.9637399999999996  2.4346899999999998 10.8607899999999997
  7.4546700000000001  4.8693700000000000 11.7215799999999994
  5.9637399999999996  0.0000000000000000 12.5823699999999992
  7.4546700000000001  2.4346899999999998 13.4431700000000003
  5.9637399999999996  4.8693700000000000 14.3039600000000000
  7.4546700000000001  0.0876300000000000 15.0867199999999997
  5.9637399999999996  2.4834399999999999 16.1336000000000013
  7.4546700000000001  4.8329800000000001 16.8940300000000008
  5.9637399999999996 -0.0737200000000000 17.5463099999999983
