Au Pb 
 1.0000000000000000
     5.9637385930000004    0.0000000000000000    0.0000000000000000
     0.0000000000000000    7.3040582560000002    0.0000000000000000
     0.0000000000000000    0.0000000000000000   27.7471236840000017
  20   1
Cartesian
  1.4909300000000001  0.0000000000000000 10.0000000000000000
  0.0000000000000000  2.4346899999999998 10.8607899999999997
  1.4909300000000001  4.8693700000000000 11.7215799999999994
  0.0000000000000000  0.0000000000000000 12.5823699999999992
  1.4909300000000001  2.4346899999999998 13.4431700000000003
  0.0000000000000000  4.8693700000000000 14.3039600000000000
  1.4909300000000001  0.0494000000000000 15.1115200000000005
 -0.0281800000000000  2.3925700000000001 16.0981699999999996
  1.4909300000000001  4.6811699999999998 16.8646099999999990
 -0.0352000000000000 -0.0947000000000000 17.6501599999999996
  4.4728000000000003  0.0000000000000000 10.0000000000000000
  2.9818699999999998  2.4346899999999998 10.8607899999999997
  4.4728000000000003  4.8693700000000000 11.7215799999999994
  2.9818699999999998  0.0000000000000000 12.5823699999999992
  4.4728000000000003  2.4346899999999998 13.4431700000000003
  2.9818699999999998  4.8693700000000000 14.3039600000000000
  4.4728000000000003  0.0241300000000000 15.1021500000000000
  3.0100500000000001  2.3925700000000001 16.0981699999999996
  4.4728000000000003  4.7548700000000004 16.9850700000000003
  3.0170699999999999 -0.0947000000000000 17.6501599999999996
  1.4909300000000001  5.6592099999999999 19.5125400000000013
