Au Pb 
 1.0000000000000000
     8.9456078889999997    0.0000000000000000    0.0000000000000000
     0.0000000000000000    7.3040582560000002    0.0000000000000000
     0.0000000000000000    0.0000000000000000   27.7471236840000017
  30   1
Cartesian
  1.4909300000000001  0.0000000000000000 10.0000000000000000
  0.0000000000000000  2.4346899999999998 10.8607899999999997
  1.4909300000000001  4.8693700000000000 11.7215799999999994
  0.0000000000000000  0.0000000000000000 12.5823699999999992
  1.4909300000000001  2.4346899999999998 13.4431700000000003
  0.0000000000000000  4.8693700000000000 14.3039600000000000
  1.4909300000000001  0.0202300000000000 15.1072900000000008
 -0.0600500000000000  2.4058000000000002 16.0692999999999984
  1.4909300000000001  4.7087800000000000 16.9669699999999999
 -0.0379900000000000 -0.2096900000000000 17.6325399999999988
  4.4728000000000003  0.0000000000000000 10.0000000000000000
  2.9818699999999998  2.4346899999999998 10.8607899999999997
  4.4728000000000003  4.8693700000000000 11.7215799999999994
  2.9818699999999998  0.0000000000000000 12.5823699999999992
  4.4728000000000003  2.4346899999999998 13.4431700000000003
  2.9818699999999998  4.8693700000000000 14.3039600000000000
  4.4669299999999996  0.0212700000000000 15.0909499999999994
  3.0419200000000002  2.4058000000000002 16.0692999999999984
  4.4837899999999999  4.7267299999999999 16.9262000000000015
  3.0198600000000000 -0.2096900000000000 17.6325399999999988
  7.4546700000000001  0.0000000000000000 10.0000000000000000
  5.9637399999999996  2.4346899999999998 10.8607899999999997
  7.4546700000000001  4.8693700000000000 11.7215799999999994
  5.9637399999999996  0.0000000000000000 12.5823699999999992
  7.4546700000000001  2.4346899999999998 13.4431700000000003
  5.9637399999999996  4.8693700000000000 14.3039600000000000
  7.4605499999999996  0.0212700000000000 15.0909499999999994
  5.9637399999999996  2.3818400000000000 16.1165799999999990
  7.4436900000000001  4.7267299999999999 16.9262000000000015
  5.9637399999999996 -0.1967200000000000 17.5632100000000015
  1.4909300000000001  2.1101600000000000 18.6136499999999998
