Au  H  O 
 1.0000000000000000
     7.2859499400000001    0.0000000000000000    0.0000000000000000
     0.0000000000000000    8.9234298200000008    0.0000000000000000
     0.0000000000000000    0.0000000000000000   30.8692594800000002
  27   6   3
Selective dynamics
Cartesian
  4.5696634216204304  1.5312193574217201 10.6546745247458663   T   T   T
  4.7695672610118560  4.5131218217406133 10.5746175191632510   T   T   T
  4.7284311904518948  7.6162218588026898 10.6416442250841499   T   T   T
  2.2865351344402471  0.0247160119367646  9.8643049789103419   T   T   T
  2.2183493843061277  2.9647938077921769  9.8661528087019317   T   T   T
  2.4199895948981331  5.9942155296055288  9.8701817162131960   T   T   T
  7.2818399725046463  1.4173516808442543  9.0912002198770789   T   T   T
  7.2609809658379589  4.5044988168893427  9.1848094548525356   T   T   T
  7.2662956746599479  7.3677308681217308  9.0590649177191640   T   T   T
  4.8702009244072837  0.0504199163064221  8.1454214907871840   F   F   F
  4.8702009244072837  3.0248964539652481  8.1454214907871840   F   F   F
  4.8702009244072837  5.9993731201214722  8.1454214907871840   F   F   F
  2.4415508958342635  1.5376582101214724  7.2867640212471834   F   F   F
  2.4415508958342635  4.5121347870433279  7.2867640212471834   F   F   F
  2.4415508958342635  7.4866113639652481  7.2867640212471834   F   F   F
  0.0129009408493554  0.0504199163064221  6.4281065517069642   F   F   F
  0.0129009408493554  3.0248964539652481  6.4281065517069642   F   F   F
  0.0129009408493554  5.9993731201214722  6.4281065517069642   F   F   F
  4.8702009244072837  1.5376582101214724  5.5694490821669618   F   F   F
  4.8702009244072837  4.5121347870433279  5.5694490821669618   F   F   F
  4.8702009244072837  7.4866113639652481  5.5694490821669618   F   F   F
  2.4415508958342635  0.0504199163064221  4.7107916126267417   F   F   F
  2.4415508958342635  3.0248964539652481  4.7107916126267417   F   F   F
  2.4415508958342635  5.9993731201214722  4.7107916126267417   F   F   F
  0.0129009408493554  1.5376582101214724  3.8521341430867420   F   F   F
  0.0129009408493554  4.5121347870433279  3.8521341430867420   F   F   F
  0.0129009408493554  7.4866113639652481  3.8521341430867420   F   F   F
  0.0511606756944114  5.9675921289244611 13.4933098567897858   T   T   T
  0.9526484873532987  5.3474518722126563 12.4425089042527777   T   T   T
  5.0514214587133255  7.0622193390888652 13.5005501926250417   T   T   T
  6.0820447473120325  8.2433009493325482 13.0648330105200898   T   T   T
  7.0577199897289731  1.6870393913426833 13.9912305463246280   T   T   T
  7.0082698925424749  1.8010336385294896 12.4461764674816173   T   T   T
  0.7583841564932485  5.3300734828052043 13.4050389827926946   T   T   T
  5.8757994190604457  7.2644319320302264 13.0336205627517732   T   T   T
  7.0757640638408397  1.1320460630297153 13.1969487759396920   T   T   T
