Au  H  O                                
   1.00000000000000     
     7.2859499400000001    0.0000000000000000    0.0000000000000000
     0.0000000000000000    8.9234298200000008    0.0000000000000000
     0.0000000000000000    0.0000000000000000   30.8692594800000002
   Au   H    O 
    27    16     8
Selective dynamics
Direct
  0.6271884187033586  0.1715953829759284  0.3451548467383535   T   T   T
  0.6546253131423321  0.5057608915828973  0.3425614250971741   T   T   T
  0.6489793684269940  0.8535083496406866  0.3447327342587795   T   T   T
  0.3138280050329645  0.0027697883476787  0.3195510726553503   T   T   T
  0.3044694792819463  0.3322482349944874  0.3196109325231514   T   T   T
  0.3321446914715054  0.6717389670248484  0.3197414477210905   T   T   T
  0.9994359050598481  0.1588348549195240  0.2945065859376125   T   T   T
  0.9965729967447400  0.5047945585668698  0.2975390278086624   T   T   T
  0.9973024429893280  0.8256613226910244  0.2934655728812826   T   T   T
  0.6684373300000033  0.0056502843999979  0.2638683799999981   F   F   F
  0.6684373300000033  0.3389836099999997  0.2638683799999981   F   F   F
  0.6684373300000033  0.6723169500000026  0.2638683799999981   F   F   F
  0.3351039900000004  0.1723169500000026  0.2360524400000017   F   F   F
  0.3351039900000004  0.5056502799999976  0.2360524400000017   F   F   F
  0.3351039900000004  0.8389836099999997  0.2360524400000017   F   F   F
  0.0017706601000000  0.0056502843999979  0.2082364999999982   F   F   F
  0.0017706601000000  0.3389836099999997  0.2082364999999982   F   F   F
  0.0017706601000000  0.6723169500000026  0.2082364999999982   F   F   F
  0.6684373300000033  0.1723169500000026  0.1804205600000017   F   F   F
  0.6684373300000033  0.5056502799999976  0.1804205600000017   F   F   F
  0.6684373300000033  0.8389836099999997  0.1804205600000017   F   F   F
  0.3351039900000004  0.0056502843999979  0.1526046199999982   F   F   F
  0.3351039900000004  0.3389836099999997  0.1526046199999982   F   F   F
  0.3351039900000004  0.6723169500000026  0.1526046199999982   F   F   F
  0.0017706601000000  0.1723169500000026  0.1247886800000018   F   F   F
  0.0017706601000000  0.5056502799999976  0.1247886800000018   F   F   F
  0.0017706601000000  0.8389836099999997  0.1247886800000018   F   F   F
  0.0203551244367404  0.4529242924691889  0.4736917462464474   T   T   T
  0.0959803603944571  0.3396458879342359  0.5094488166436965   T   T   T
  0.5874779334165919  0.5289007681180842  0.5086775184808712   T   T   T
  0.7358732218682954  0.4017974362335571  0.5113623288582466   T   T   T
  0.0070218264077740  0.6687554280473358  0.4371115499395772   T   T   T
  0.1307514456177143  0.5992596994742382  0.4030711819411865   T   T   T
  0.6933099321724582  0.7914243157110261  0.4373460983530222   T   T   T
  0.8347634553349721  0.9237816753886398  0.4232311766009390   T   T   T
  0.9686753337381526  0.1890572823872652  0.4532415348476195   T   T   T
  0.9618882850219631  0.2018319945199602  0.4031899915041829   T   T   T
  0.3808379767186202  0.6751310988468366  0.4498562554317493   T   T   T
  0.4253817349491987  0.8181313224543947  0.4685671412085698   T   T   T
  0.3561134718914617  0.0972366766392352  0.4847961415755574   T   T   T
  0.2713918751996522  0.0606283548044890  0.4434844968028566   T   T   T
  0.3196955558456896  0.1682848401000275  0.5511588468939569   T   T   T
  0.4075510606973992  0.3110582407436392  0.5277682093606896   T   T   T
  0.9874460329052858  0.3693946869750256  0.4937537866838450   T   T   T
  0.6002136147540107  0.4237534203422750  0.5142285530683713   T   T   T
  0.1040885763337057  0.5973121983723074  0.4342520426017260   T   T   T
  0.8064561886161471  0.8140851756068639  0.4222200591237433   T   T   T
  0.9711518912578254  0.1268622139541537  0.4275110254747093   T   T   T
  0.4864396572338359  0.7261364138097935  0.4638236879585372   T   T   T
  0.3614695432111737  0.0176640634109777  0.4632900498198604   T   T   T
  0.2943211185978720  0.2471526475127993  0.5303877220787783   T   T   T
 
 -0.44589541E-03  0.62366110E-03  0.18288172E-03
  0.11863425E-03  0.74284272E-04  0.92284740E-04
 -0.54717676E-03 -0.20941555E-03 -0.73100679E-03
  0.24040020E-03  0.13692433E-02 -0.33881411E-03
 -0.44142089E-03  0.43439536E-03 -0.10282388E-03
 -0.66460428E-03  0.25523971E-03  0.57033296E-03
 -0.32672480E-03  0.53392378E-03 -0.44262558E-03
  0.15049494E-03 -0.66818295E-04 -0.29331219E-03
 -0.58393658E-03  0.36448580E-03 -0.38789056E-03
  0.00000000E+00  0.00000000E+00  0.00000000E+00
  0.00000000E+00  0.00000000E+00  0.00000000E+00
  0.00000000E+00  0.00000000E+00  0.00000000E+00
  0.00000000E+00  0.00000000E+00  0.00000000E+00
  0.00000000E+00  0.00000000E+00  0.00000000E+00
  0.00000000E+00  0.00000000E+00  0.00000000E+00
  0.00000000E+00  0.00000000E+00  0.00000000E+00
  0.00000000E+00  0.00000000E+00  0.00000000E+00
  0.00000000E+00  0.00000000E+00  0.00000000E+00
  0.00000000E+00  0.00000000E+00  0.00000000E+00
  0.00000000E+00  0.00000000E+00  0.00000000E+00
  0.00000000E+00  0.00000000E+00  0.00000000E+00
  0.00000000E+00  0.00000000E+00  0.00000000E+00
  0.00000000E+00  0.00000000E+00  0.00000000E+00
  0.00000000E+00  0.00000000E+00  0.00000000E+00
  0.00000000E+00  0.00000000E+00  0.00000000E+00
  0.00000000E+00  0.00000000E+00  0.00000000E+00
  0.00000000E+00  0.00000000E+00  0.00000000E+00
 -0.50917808E-02 -0.51903311E-02  0.21966256E-02
 -0.50988372E-02  0.97302571E-02 -0.17783472E-02
  0.80173500E-02  0.79263943E-02  0.50893475E-02
 -0.14938312E-01 -0.15488284E-01 -0.19285258E-03
 -0.12892314E-02  0.11193632E-02  0.14509170E-01
 -0.41335709E-02  0.21716499E-02  0.25456839E-03
 -0.11821846E-01  0.23040333E-03  0.12261646E-01
 -0.37110273E-02  0.11425999E-01  0.60207299E-02
  0.82890830E-02 -0.52499259E-02 -0.11217461E-01
 -0.53881571E-02 -0.15903176E-01  0.25955683E-02
  0.92302076E-02  0.61243618E-02 -0.37530641E-03
  0.55980979E-02 -0.54915182E-03  0.20285375E-01
  0.21119619E-01 -0.83738232E-02  0.26211832E-02
  0.26979876E-02  0.47565132E-02 -0.53558292E-02
  0.17415164E-02  0.12842142E-01  0.71881039E-02
 -0.25865364E-02 -0.11917377E-01 -0.64327598E-03
  0.41321385E-03 -0.11787855E-02  0.28823461E-02
  0.89506767E-03 -0.40309128E-02  0.49756395E-02
 -0.22124416E-02 -0.27360436E-02  0.18605714E-02
 -0.54883802E-03  0.19808752E-02 -0.22934112E-02
 -0.17569069E-02  0.78955918E-03  0.14190354E-02
  0.69298027E-03 -0.39902089E-02 -0.21393819E-02
 -0.10809852E-02  0.22544849E-02 -0.24249008E-02
  0.18591097E-02  0.33771513E-02  0.65041163E-03
 
           1
   1.00000000000000     
  0.18271591E+01  0.26373146E-01  0.00000000E+00  0.00000000E+00
  0.62712722E+00  0.17166527E+00  0.34516077E+00
  0.65464160E+00  0.50576922E+00  0.34256441E+00
  0.64890427E+00  0.85348488E+00  0.34470905E+00
  0.31386100E+00  0.29232320E-02  0.31954010E+00
  0.30440889E+00  0.33229692E+00  0.31960760E+00
  0.33205347E+00  0.67176757E+00  0.31975992E+00
  0.99939106E+00  0.15889469E+00  0.29449225E+00
  0.99659365E+00  0.50478707E+00  0.29752953E+00
  0.99722230E+00  0.82570217E+00  0.29345301E+00
  0.66843733E+00  0.56502844E-02  0.26386838E+00
  0.66843733E+00  0.33898361E+00  0.26386838E+00
  0.66843733E+00  0.67231695E+00  0.26386838E+00
  0.33510399E+00  0.17231695E+00  0.23605244E+00
  0.33510399E+00  0.50565028E+00  0.23605244E+00
  0.33510399E+00  0.83898361E+00  0.23605244E+00
  0.17706601E-02  0.56502844E-02  0.20823650E+00
  0.17706601E-02  0.33898361E+00  0.20823650E+00
  0.17706601E-02  0.67231695E+00  0.20823650E+00
  0.66843733E+00  0.17231695E+00  0.18042056E+00
  0.66843733E+00  0.50565028E+00  0.18042056E+00
  0.66843733E+00  0.83898361E+00  0.18042056E+00
  0.33510399E+00  0.56502844E-02  0.15260462E+00
  0.33510399E+00  0.33898361E+00  0.15260462E+00
  0.33510399E+00  0.67231695E+00  0.15260462E+00
  0.17706601E-02  0.17231695E+00  0.12478868E+00
  0.17706601E-02  0.50565028E+00  0.12478868E+00
  0.17706601E-02  0.83898361E+00  0.12478868E+00
  0.19656275E-01  0.45234264E+00  0.47376291E+00
  0.95280543E-01  0.34073630E+00  0.50939121E+00
  0.58857832E+00  0.52978904E+00  0.50884239E+00
  0.73382293E+00  0.40006175E+00  0.51135608E+00
  0.68448788E-02  0.66888087E+00  0.43758157E+00
  0.13018411E+00  0.59950306E+00  0.40307943E+00
  0.69168738E+00  0.79145014E+00  0.43774331E+00
  0.83425412E+00  0.92506212E+00  0.42342622E+00
  0.96981301E+00  0.18846895E+00  0.45287815E+00
  0.96114876E+00  0.20004981E+00  0.40327407E+00
  0.38210483E+00  0.67581742E+00  0.44984410E+00
  0.42615008E+00  0.81806978E+00  0.46922428E+00
  0.35901215E+00  0.96298268E-01  0.48488105E+00
  0.27176218E+00  0.61161391E-01  0.44331100E+00
  0.31993458E+00  0.16972399E+00  0.55139170E+00
  0.40719606E+00  0.30972273E+00  0.52774737E+00
  0.98750275E+00  0.36926259E+00  0.49384716E+00
  0.60033646E+00  0.42330170E+00  0.51438974E+00
  0.10378492E+00  0.59700558E+00  0.43431232E+00
  0.80638086E+00  0.81430716E+00  0.42214576E+00
  0.97091075E+00  0.12695070E+00  0.42755699E+00
  0.48653477E+00  0.72568925E+00  0.46375438E+00
  0.36132118E+00  0.17916711E-01  0.46321150E+00
  0.29457628E+00  0.24753111E+00  0.53040879E+00
 -0.62319738E-04  0.69554788E-04  0.60676154E-05
  0.17206653E-04  0.89215783E-05  0.28759519E-05
 -0.75876165E-04 -0.22775805E-04 -0.23809495E-04
  0.33019995E-04  0.15528306E-03 -0.11151924E-04
 -0.62277374E-04  0.48283884E-04 -0.34922434E-05
 -0.91424125E-04  0.29030207E-04  0.18588120E-04
 -0.43626301E-04  0.59767718E-04 -0.14389558E-04
  0.20626293E-04 -0.72110945E-05 -0.94300983E-05
 -0.80993507E-04  0.40478853E-04 -0.12724807E-04
  0.00000000E+00  0.00000000E+00  0.00000000E+00
  0.00000000E+00  0.00000000E+00  0.00000000E+00
  0.00000000E+00  0.00000000E+00  0.00000000E+00
  0.00000000E+00  0.00000000E+00  0.00000000E+00
  0.00000000E+00  0.00000000E+00  0.00000000E+00
  0.00000000E+00  0.00000000E+00  0.00000000E+00
  0.00000000E+00  0.00000000E+00  0.00000000E+00
  0.00000000E+00  0.00000000E+00  0.00000000E+00
  0.00000000E+00  0.00000000E+00  0.00000000E+00
  0.00000000E+00  0.00000000E+00  0.00000000E+00
  0.00000000E+00  0.00000000E+00  0.00000000E+00
  0.00000000E+00  0.00000000E+00  0.00000000E+00
  0.00000000E+00  0.00000000E+00  0.00000000E+00
  0.00000000E+00  0.00000000E+00  0.00000000E+00
  0.00000000E+00  0.00000000E+00  0.00000000E+00
  0.00000000E+00  0.00000000E+00  0.00000000E+00
  0.00000000E+00  0.00000000E+00  0.00000000E+00
  0.00000000E+00  0.00000000E+00  0.00000000E+00
 -0.73019712E-03 -0.34489159E-03  0.24806222E-04
 -0.83965425E-03  0.11086406E-02 -0.78676312E-04
  0.11557615E-02  0.75471540E-03  0.18085621E-03
 -0.16274974E-02 -0.18060054E-02 -0.12628380E-04
  0.82308290E-04 -0.11596603E-03  0.47488092E-03
 -0.52260272E-03  0.30406115E-03 -0.30982858E-04
 -0.14477979E-02 -0.47486462E-05  0.37394341E-03
 -0.41040580E-03  0.15806931E-02  0.17042439E-03
  0.11864216E-02 -0.69126921E-03 -0.39103262E-03
 -0.77847406E-03 -0.14784291E-02 -0.69451585E-05
  0.98554519E-03  0.75824025E-03 -0.35065987E-04
  0.86373076E-03 -0.59018750E-03  0.61942465E-03
  0.28154819E-02 -0.91892523E-03  0.52168170E-04
  0.37238822E-03  0.70203645E-03 -0.14852429E-03
  0.24718116E-03  0.13476783E-02  0.23346208E-03
 -0.19467210E-03 -0.12082784E-02 -0.32012754E-04
  0.88383444E-04 -0.15993766E-03  0.10353130E-03
  0.64315474E-04 -0.43068488E-03  0.16192820E-03
 -0.34294600E-03 -0.29250529E-03  0.67188194E-04
 -0.11852818E-03  0.18817378E-03 -0.69291274E-04
 -0.24348977E-03  0.62199693E-04  0.61233810E-04
  0.12165813E-03 -0.38777656E-03 -0.63300313E-04
 -0.13021812E-03  0.22810271E-03 -0.77139955E-04
  0.21932526E-03  0.37716462E-03  0.21464488E-04
  0.00000000E+00  0.00000000E+00  0.00000000E+00
  0.00000000E+00  0.00000000E+00  0.00000000E+00
  0.00000000E+00  0.00000000E+00  0.00000000E+00
  0.00000000E+00  0.00000000E+00  0.00000000E+00
  0.00000000E+00  0.00000000E+00  0.00000000E+00
  0.00000000E+00  0.00000000E+00  0.00000000E+00
  0.00000000E+00  0.00000000E+00  0.00000000E+00
  0.00000000E+00  0.00000000E+00  0.00000000E+00
  0.00000000E+00  0.00000000E+00  0.00000000E+00
  0.00000000E+00  0.00000000E+00  0.00000000E+00
  0.00000000E+00  0.00000000E+00  0.00000000E+00
  0.00000000E+00  0.00000000E+00  0.00000000E+00
  0.00000000E+00  0.00000000E+00  0.00000000E+00
  0.00000000E+00  0.00000000E+00  0.00000000E+00
  0.00000000E+00  0.00000000E+00  0.00000000E+00
  0.00000000E+00  0.00000000E+00  0.00000000E+00
  0.00000000E+00  0.00000000E+00  0.00000000E+00
  0.00000000E+00  0.00000000E+00  0.00000000E+00
  0.00000000E+00  0.00000000E+00  0.00000000E+00
  0.00000000E+00  0.00000000E+00  0.00000000E+00
  0.00000000E+00  0.00000000E+00  0.00000000E+00
  0.00000000E+00  0.00000000E+00  0.00000000E+00
  0.00000000E+00  0.00000000E+00  0.00000000E+00
  0.00000000E+00  0.00000000E+00  0.00000000E+00
  0.00000000E+00  0.00000000E+00  0.00000000E+00
  0.00000000E+00  0.00000000E+00  0.00000000E+00
  0.00000000E+00  0.00000000E+00  0.00000000E+00
  0.00000000E+00  0.00000000E+00  0.00000000E+00
  0.00000000E+00  0.00000000E+00  0.00000000E+00
  0.00000000E+00  0.00000000E+00  0.00000000E+00
  0.00000000E+00  0.00000000E+00  0.00000000E+00
  0.00000000E+00  0.00000000E+00  0.00000000E+00
  0.00000000E+00  0.00000000E+00  0.00000000E+00
  0.00000000E+00  0.00000000E+00  0.00000000E+00
  0.00000000E+00  0.00000000E+00  0.00000000E+00
  0.00000000E+00  0.00000000E+00  0.00000000E+00
  0.00000000E+00  0.00000000E+00  0.00000000E+00
  0.00000000E+00  0.00000000E+00  0.00000000E+00
  0.00000000E+00  0.00000000E+00  0.00000000E+00
  0.00000000E+00  0.00000000E+00  0.00000000E+00
  0.00000000E+00  0.00000000E+00  0.00000000E+00
  0.00000000E+00  0.00000000E+00  0.00000000E+00
  0.00000000E+00  0.00000000E+00  0.00000000E+00
  0.00000000E+00  0.00000000E+00  0.00000000E+00
  0.00000000E+00  0.00000000E+00  0.00000000E+00
  0.00000000E+00  0.00000000E+00  0.00000000E+00
  0.00000000E+00  0.00000000E+00  0.00000000E+00
  0.00000000E+00  0.00000000E+00  0.00000000E+00
  0.00000000E+00  0.00000000E+00  0.00000000E+00
  0.00000000E+00  0.00000000E+00  0.00000000E+00
  0.00000000E+00  0.00000000E+00  0.00000000E+00
