Au  H  O                                
   1.00000000000000     
     8.4340000000000011    0.0000000000000000    0.0000000000000000
     0.0000000000000000    6.6676624464650276    0.0000000000000000
     0.0000000000000000    0.0000000000000000   28.6679611804045358
   Au   H    O 
    28    12     6
Selective dynamics
Direct
  0.2500000000000000  0.8999999999999986  0.0592996477601631   F   F   F
  0.0000000000000000  0.6000000000000014  0.0825578850812860   F   F   F
  0.2500000000000000  0.2999999999999972  0.1058161224024019   F   F   F
  0.0000000000000000  0.0000000000000000  0.1290743597235249   F   F   F
  0.2500000000000000  0.7000000000000028  0.1523325970446479   F   F   F
  0.0000000000000000  0.3999999999999986  0.1755908343657637   F   F   F
  0.2500000000000000  0.1000000000000014  0.1988490716868867   F   F   F
 -0.0003705788871292  0.8074870390544550  0.2215318705814413   T   T   T
  0.2499865570942698  0.5122955993180845  0.2421923417689054   T   T   T
  0.0001612825405362  0.2131395257995901  0.2635463110371208   T   T   T
  0.2507613740044322  0.8894115244628399  0.2932378425402440   T   T   T
 -0.0016125527191618  0.6047622333926869  0.3154877322110621   T   T   T
  0.2456937888980282  0.3198727012529357  0.3336461696835202   T   T   T
 -0.0029791737075775  0.0296750534263152  0.3488734308033551   T   T   T
  0.7500000000000000  0.8999999999999986  0.0592996477601631   F   F   F
  0.5000000000000000  0.6000000000000014  0.0825578850812860   F   F   F
  0.7500000000000000  0.2999999999999972  0.1058161224024019   F   F   F
  0.5000000000000000  0.0000000000000000  0.1290743597235249   F   F   F
  0.7500000000000000  0.7000000000000028  0.1523325970446479   F   F   F
  0.5000000000000000  0.3999999999999986  0.1755908343657637   F   F   F
  0.7500000000000000  0.1000000000000014  0.1988490716868867   F   F   F
  0.4990449930262091  0.8067525423719381  0.2212100670526643   T   T   T
  0.7492328242405786  0.5124970961060604  0.2418350058624209   T   T   T
  0.4984251990661109  0.2082291589206374  0.2648271678715531   T   T   T
  0.7444824122877017  0.8865654159469476  0.2927728014812697   T   T   T
  0.4962562089357648  0.6002556282744094  0.3149382268259784   T   T   T
  0.7498503632095052  0.3205391099941075  0.3319136748939852   T   T   T
  0.5004300087219515  0.0416270797574261  0.3518034885740045   T   T   T
 -0.0368577419374922  0.4024961163283566  0.4045596668723881   T   T   T
  0.0577904495042354  0.4660359902238928  0.4476315145016189   T   T   T
  0.6120097593464942  0.6881512436978934  0.4392284712509518   T   T   T
  0.7445745874883380  0.5231562339612146  0.4432742554229733   T   T   T
  0.1115609758019602  0.8089582254507959  0.4310513477038908   T   T   T
  0.2032841467290952  0.6827738937254341  0.3948489400815543   T   T   T
  0.8113246610106045 -0.0435558643732592  0.4355673298205979   T   T   T
  0.9363909579012151  0.1230082904530962  0.4453288259522997   T   T   T
  0.4584960643700530  0.0615932631835457  0.4480758234231089   T   T   T
  0.3849574136160689 -0.1432378679587885  0.4326347915790386   T   T   T
  0.3830591407746689  0.3153674910482985  0.4986455870815744   T   T   T
  0.4772496997214420  0.3903438251285841  0.4555234542304832   T   T   T
  0.9603095976565049  0.3982856753788074  0.4385831515574442   T   T   T
  0.6336720237411901  0.5459924421436977  0.4357871102944326   T   T   T
  0.2024120955034470  0.7194270057854898  0.4277164288065655   T   T   T
  0.9240699484999892 -0.0209242967597340  0.4389357739029256   T   T   T
  0.4853537558668357 -0.0672706221972889  0.4326321644427481   T   T   T
  0.3955075616216277  0.2939437018941996  0.4655547759620851   T   T   T
 
  0.00000000E+00  0.00000000E+00  0.00000000E+00
  0.00000000E+00  0.00000000E+00  0.00000000E+00
  0.00000000E+00  0.00000000E+00  0.00000000E+00
  0.00000000E+00  0.00000000E+00  0.00000000E+00
  0.00000000E+00  0.00000000E+00  0.00000000E+00
  0.00000000E+00  0.00000000E+00  0.00000000E+00
  0.00000000E+00  0.00000000E+00  0.00000000E+00
  0.00000000E+00  0.00000000E+00  0.00000000E+00
  0.00000000E+00  0.00000000E+00  0.00000000E+00
  0.00000000E+00  0.00000000E+00  0.00000000E+00
  0.00000000E+00  0.00000000E+00  0.00000000E+00
  0.00000000E+00  0.00000000E+00  0.00000000E+00
  0.00000000E+00  0.00000000E+00  0.00000000E+00
  0.00000000E+00  0.00000000E+00  0.00000000E+00
  0.00000000E+00  0.00000000E+00  0.00000000E+00
  0.00000000E+00  0.00000000E+00  0.00000000E+00
  0.00000000E+00  0.00000000E+00  0.00000000E+00
  0.00000000E+00  0.00000000E+00  0.00000000E+00
  0.00000000E+00  0.00000000E+00  0.00000000E+00
  0.00000000E+00  0.00000000E+00  0.00000000E+00
  0.00000000E+00  0.00000000E+00  0.00000000E+00
  0.00000000E+00  0.00000000E+00  0.00000000E+00
  0.00000000E+00  0.00000000E+00  0.00000000E+00
  0.00000000E+00  0.00000000E+00  0.00000000E+00
  0.00000000E+00  0.00000000E+00  0.00000000E+00
  0.00000000E+00  0.00000000E+00  0.00000000E+00
  0.00000000E+00  0.00000000E+00  0.00000000E+00
  0.00000000E+00  0.00000000E+00  0.00000000E+00
  0.00000000E+00  0.00000000E+00  0.00000000E+00
  0.00000000E+00  0.00000000E+00  0.00000000E+00
  0.00000000E+00  0.00000000E+00  0.00000000E+00
  0.00000000E+00  0.00000000E+00  0.00000000E+00
  0.00000000E+00  0.00000000E+00  0.00000000E+00
  0.00000000E+00  0.00000000E+00  0.00000000E+00
  0.00000000E+00  0.00000000E+00  0.00000000E+00
  0.00000000E+00  0.00000000E+00  0.00000000E+00
  0.00000000E+00  0.00000000E+00  0.00000000E+00
  0.00000000E+00  0.00000000E+00  0.00000000E+00
  0.00000000E+00  0.00000000E+00  0.00000000E+00
  0.00000000E+00  0.00000000E+00  0.00000000E+00
  0.00000000E+00  0.00000000E+00  0.00000000E+00
  0.00000000E+00  0.00000000E+00  0.00000000E+00
  0.00000000E+00  0.00000000E+00  0.00000000E+00
  0.00000000E+00  0.00000000E+00  0.00000000E+00
  0.00000000E+00  0.00000000E+00  0.00000000E+00
  0.00000000E+00  0.00000000E+00  0.00000000E+00
