Au Pb 
 1.0000000000000000
     8.9456078889999997    0.0000000000000000    0.0000000000000000
     0.0000000000000000    7.3040582560000002    0.0000000000000000
     0.0000000000000000    0.0000000000000000   27.7471236840000017
  30   1
Cartesian
  1.4909300000000001  0.0000000000000000 10.0000000000000000
  0.0000000000000000  2.4346899999999998 10.8607899999999997
  1.4909300000000001  4.8693700000000000 11.7215799999999994
  0.0000000000000000  0.0000000000000000 12.5823699999999992
  1.4909300000000001  2.4346899999999998 13.4431700000000003
  0.0000000000000000  4.8693700000000000 14.3039600000000000
  1.4804400000000000 -0.0120500000000000 15.0942299999999996
 -0.0000000000000000  2.3893399999999998 15.9156700000000004
  1.4960000000000000  4.6245900000000004 17.0799500000000002
 -0.0000000000000000 -0.1975400000000000 17.6799099999999996
  4.4728000000000003  0.0000000000000000 10.0000000000000000
  2.9818699999999998  2.4346899999999998 10.8607899999999997
  4.4728000000000003  4.8693700000000000 11.7215799999999994
  2.9818699999999998  0.0000000000000000 12.5823699999999992
  4.4728000000000003  2.4346899999999998 13.4431700000000003
  2.9818699999999998  4.8693700000000000 14.3039600000000000
  4.4728000000000003  0.0367800000000000 15.1074099999999998
  3.0042599999999999  2.3616000000000001 16.1604899999999994
  4.4728000000000003  4.7240799999999998 16.9030400000000007
  2.9387300000000001 -0.2422500000000000 17.5613300000000017
  7.4546700000000001  0.0000000000000000 10.0000000000000000
  5.9637399999999996  2.4346899999999998 10.8607899999999997
  7.4546700000000001  4.8693700000000000 11.7215799999999994
  5.9637399999999996  0.0000000000000000 12.5823699999999992
  7.4546700000000001  2.4346899999999998 13.4431700000000003
  5.9637399999999996  4.8693700000000000 14.3039600000000000
  7.4651699999999996 -0.0120500000000000 15.0942299999999996
  5.9413499999999999  2.3616000000000001 16.1604899999999994
  7.4496099999999998  4.6245900000000004 17.0799500000000002
  6.0068799999999998 -0.2422500000000000 17.5613300000000017
 -0.0000000000000000  2.5506799999999998 18.7505300000000013
