Au Pb 
 1.0000000000000000
     5.9637385930000004    0.0000000000000000    0.0000000000000000
     0.0000000000000000    7.3040582560000002    0.0000000000000000
     0.0000000000000000    0.0000000000000000   27.7471236840000017
  20   1
Cartesian
  1.4909300000000001  0.0000000000000000 10.0000000000000000
  0.0000000000000000  2.4346899999999998 10.8607899999999997
  1.4909300000000001  4.8693700000000000 11.7215799999999994
  0.0000000000000000  0.0000000000000000 12.5823699999999992
  1.4909300000000001  2.4346899999999998 13.4431700000000003
  0.0000000000000000  4.8693700000000000 14.3039600000000000
  1.4848200000000000  0.0449800000000000 15.1123799999999999
 -0.0000000000000000  2.4434800000000001 16.0803300000000000
  1.5275799999999999  4.7264400000000002 16.9190000000000005
 -0.0000000000000000  0.0215900000000000 17.6531100000000016
  4.4728000000000003  0.0000000000000000 10.0000000000000000
  2.9818699999999998  2.4346899999999998 10.8607899999999997
  4.4728000000000003  4.8693700000000000 11.7215799999999994
  2.9818699999999998  0.0000000000000000 12.5823699999999992
  4.4728000000000003  2.4346899999999998 13.4431700000000003
  2.9818699999999998  4.8693700000000000 14.3039600000000000
  4.4789199999999996  0.0449800000000000 15.1123799999999999
  2.9818699999999998  2.3557100000000002 16.1310299999999991
  4.4361600000000001  4.7264400000000002 16.9190000000000005
  2.9818699999999998  7.1094499999999998 17.6356900000000003
 -0.0000000000000000  5.0548400000000004 19.3202800000000003
