Au  H  O 
 1.0000000000000000
     8.4340000000000011    0.0000000000000000    0.0000000000000000
     0.0000000000000000    6.6676624464650276    0.0000000000000000
     0.0000000000000000    0.0000000000000000   28.6679611804045358
  28   6   3
Selective dynamics
Cartesian
  2.1085000000000003  6.0008962018185157  1.7000000000000186   F   F   F
  0.0000000000000000  4.0005974678790261  2.3667662446466058   F   F   F
  2.1085000000000003  2.0002987339394895  3.0335324892929925   F   F   F
  0.0000000000000000  0.0000000000000000  3.7002987339395825   F   F   F
  2.1085000000000003  4.6673637125255381  4.3670649785861730   F   F   F
  0.0000000000000000  2.6670649785860014  5.0338312232325562   F   F   F
  2.1085000000000003  0.6667662446465120  5.7005974678791462   F   F   F
 -0.0031254623340477  5.3840510063106288  6.3508670660511610   T   T   T
  2.1083866225330721  3.4158141290624870  6.9431606520222475   T   T   T
  0.0013602569468823  1.4211424120312908  7.5553354140509983   T   T   T
  2.1149214283533815  5.9302958211140888  8.4065310865692933   T   T   T
 -0.0136002696334106  4.0323504326327368  9.0443900599205893   T   T   T
  2.0721814155659701  2.1328031977935260  9.5649554404778208   T   T   T
 -0.0251263510497086  0.1978632393274852 10.0014899711451317   T   T   T
  6.3255000000000008  6.0008962018185157  1.7000000000000186   F   F   F
  4.2170000000000005  4.0005974678790261  2.3667662446466058   F   F   F
  6.3255000000000008  2.0002987339394895  3.0335324892929925   F   F   F
  4.2170000000000005  0.0000000000000000  3.7002987339395825   F   F   F
  6.3255000000000008  4.6673637125255381  4.3670649785861730   F   F   F
  4.2170000000000005  2.6670649785860014  5.0338312232325562   F   F   F
  6.3255000000000008  0.6667662446465120  5.7005974678791462   F   F   F
  4.2089454711830481  5.3791536303635574  6.3416416149804649   T   T   T
  6.3190296396450405  3.4171576416287572  6.9329165601267855   T   T   T
  4.2037181289235797  1.3884017431941322  7.5920549680581590   T   T   T
  6.2789646652344775  5.9113189302441098  8.3931993075433233   T   T   T
  4.1854248661642410  4.0023019109245510  9.0286368608725862   T   T   T
  6.3242379633089669  2.1372465863310333  9.5152883471061802   T   T   T
  4.2206266935609396  0.2775553164545945 10.0854887535704520   T   T   T
 -0.3108581955008093  2.6837082396906022 11.5979008250550120   T   T   T
  0.4874046511187214  3.1073706707169926 12.8326828808581013   T   T   T
  0.9409052699137325  5.3938603805972614 12.3573633027362000   T   T   T
  1.7144984935131891  4.5525058506197809 11.3195140863818757   T   T   T
  3.8669558068970278  0.4106830878841646 12.8454203117714840   T   T   T
  3.2467308264379255 -0.9550617531005304 12.4027574102802856   T   T   T
  8.0992511466349644  2.6556344406882344 12.5732847632282905   T   T   T
  1.7071436134760722  4.7968964294486884 12.2617579772478802   T   T   T
  4.0934735769808928 -0.4485378013751999 12.4026820956390935   T   T   T
